LLZO_2                                  
   2.00000000000000     
    13.2360699999999998    0.0000000000000000    0.0000000000000000
     0.0000000000000000   13.2360699999999998    0.0000000000000000
     0.0000000000000000    0.0000000000000000   12.7017059999999997
   La   Li   O    Zr
   192   448   768   128
Direct
  0.4919962896345424  0.0018872914364115  0.1260915675419617
  0.8782645774812166  0.1879045334350795  0.9381902740902306
  0.8722697490724758  0.4369102439598773  0.9325737932323475
  0.8101454247746306  0.3724090270558358  0.5615470916423512
  0.9447001124258123  0.1030641996682528  0.5567264793029143
  0.5060038345795821  0.2458257848405821  0.7406591476935722
  0.4919325691159009  0.2445905262338341  0.5024338084939457
  0.7566091777653176  0.2480430806803858  0.8671612485385533
  0.5075998005082362  0.0022258308638831  0.8628121738418922
  0.6327950754400107  0.0512887985976954  0.9367127523549867
  0.6289398279897759  0.3174547237497348  0.9350082551618776
  0.5643615744556378  0.3675589343926453  0.5660364425692623
  0.6871413745943126  0.1292289962328922  0.5665124408272657
  0.9345048424523786  0.3717872578651933  0.8079802414461928
  0.6412551814825767  0.4378753524561020  0.6696412110977907
  0.6911407920335101  0.3871822968731944  0.3243341776397155
  0.6926617246038826  0.8809088391937634  0.8091448518425683
  0.5779609512484876  0.6239808536454569  0.8140984578711339
  0.6302702143360547  0.6834914452851497  0.6883717472686958
  0.6170202675768454  0.9347938802319887  0.6841468104803254
  0.6823894593948050  0.6400415549794234  0.5614319039552293
  0.5485339055064288  0.8723609341559161  0.5541455602125280
  0.6065562881137900  0.8113125789699985  0.9116024600261176
  0.6311235080097467  0.5646955742630894  0.9356406478337547
  0.5025329242825526  0.4985179435844090  0.8699886856517454
  0.7533215713885566  0.7460414231576962  0.8758448169686862
  0.4993941516065441  0.7479825720195884  0.5011295020637399
  0.6209811049000821  0.1841005403606731  0.6830939304708505
  0.5118197725772677  0.7547000950521189  0.7506461605344519
  0.8180615369902788  0.1345680333485726  0.8027680750736910
  0.8697511055218345  0.2970898869091529  0.6802414058849576
  0.9999959403676979  0.4952373159080359  0.1180040626973122
  0.0024591868689687 -0.0140570623895937  0.6129091965779442
  0.3808377915203926  0.8264016378061942  0.1899400356452057
  0.3679335588982074  0.5679762696510129  0.1910817670836349
  0.3132892879905784  0.6367635098108001  0.3037398728059108
  0.4343556417197162  0.8722110127801568  0.3078738965619629
  0.3796400112636842  0.6884222941380730  0.4339349179093592
  0.3674025777878765  0.9259466264160049  0.4258484035229216
  0.3139914977943299  0.8668528192469377  0.0634442430876021
  0.4437959879161960  0.6168108496601912  0.0592829466784481
 -0.0008476178111805  0.7498480982710192  0.2480700204506640
  0.9904976770967269  0.7554333397393165  0.9961099160185829
  0.8750346632931538  0.0645074171389873  0.6781569853366995
  0.2505323486779832  0.7536787944463277  0.3822999110212690
  0.1323121138231967  0.5717562730113678  0.4425754726578308
  0.1289747272711562  0.8002289921578613  0.4503731020403918
  0.0676330447460466  0.8758590208865006  0.0602650214559933
  0.1715258521117164  0.6336642795863154  0.0700835912411706
  0.1280683890608481  0.9410533096646149  0.1843748877463894
  0.1233957806258665  0.6903030197825563  0.1993053303999001
  0.0636441284876968  0.6236240592868596  0.3107819292659870
  0.1835311419982018  0.8767441587776004  0.3102369337887410
  0.7547338397117623  1.0015521478710014  0.5004936056317902
  0.7597725822404591  0.0046104343248748  0.7541245314252824
  0.4932968746659150  0.9957363194540184  0.6163904838719508
  0.7445541586084112  0.2468891305841840  0.6222213291664376
 -0.0015836216880156  0.5016655680981261  0.3845600147611787
  0.9331354208279584  0.6242004767199764  0.5577440160818625
  0.8110467650686637  0.8696948005003350  0.5538287782007005
  0.8732456104180938  0.9315490815749025  0.9390232712901907
  0.5672116806768007  0.6252823951086647  0.2977582996458545
  0.6823089040749752  0.8842777057172340  0.3058288740066658
  0.6924211343464236  0.3683542223098052  0.8083743799852716
  0.5647806253584798  0.1224249396563259  0.8178285836524590
  0.1898220416927428  0.3686187875670708  0.8218864882494213
  0.0582633493711396  0.1070395956155265  0.8086924669754524
  0.1268984353553919  0.1778580013462468  0.6964981380838248
  0.1285651972620800  0.4307161995567601  0.6913619537317430
  0.1909491394525934  0.1338974490892227  0.5751430470435596
  0.0611411558256894  0.3833001030292894  0.5672432655065623
  0.1281817840025484  0.3091359606217988  0.9367107851363392
  0.1207135035133378  0.0592054625262657  0.9354050977696664
  0.6319718985706428  0.6958208954314373  0.1754816989758216
  0.9952850227731109  0.9916618794092840  0.8755653036410825
  0.0011707238419955  0.2517407574884755  0.5058702661311654
 -0.0000369107276110  0.2570901200665138  0.7530050091919747
  0.4351930883771004  0.1142028968498282  0.5497473492923928
  0.3124921874522982  0.3757663082326076  0.5747873400897089
  0.3698621988373533  0.4435652354870487  0.9317424452120704
  0.3763208589412407  0.1921054746338136  0.9339944741603596
  0.4349294804537190  0.3836422755664074  0.7993634734704728
  0.3160060799345101  0.1131585743637319  0.8168154871256093
  0.3696538587217833  0.0643912203390453  0.6834856317913329
  0.3871367526113072  0.3160691763075542  0.6890458160801195
  0.2522639385742076  0.0067373720762416  0.5131797896278583
  0.2512632941004754 -0.0041213236500621  0.7494430827080867
  0.2432004056924740  0.2491210694579407  0.8633707324553330
  0.6134812894522400  0.9372958390006372  0.1879617830259368
  0.6824889303741464  0.6131837496091966  0.0668942157927807
  0.5643254389620177  0.8589700891971684  0.0635921157177805
  0.8726151255949718  0.6707221747768695  0.9527999834710237
  0.9360061003329843  0.8599665816357492  0.8144310245551163
  0.8145468255391725  0.6255382695719006  0.8103854920125848
  0.7466185096144664  0.4938081479223777  0.5111862357855874
  0.7571197909405404  0.5066310834547485  0.7490591715312561
  0.5069826639251388  0.4970027877981764  0.6209905070985983
  0.7518282237132479  0.7484581712803527  0.6235282285395961
  0.8721936745949364  0.8159741915193416  0.6843355392440654
  0.8757881594567164  0.5658621211020879  0.6835179239311698
  0.7524767726095788  0.4881915350528254  0.9905728606974059
  0.7605400360401940  0.5084372130168351  0.2458409938158503
  0.5002750778505873  0.5024664535931783  0.1296770307623183
  0.7528137713949853  0.7570942381368364  0.1202636071030629
  0.8785199628024766  0.8134518261121614  0.1882460070524176
  0.8855631267067389  0.5688605472628832  0.1753358660861253
  0.8206022180151125  0.6341619105978303  0.3168742803177716
  0.9320272650131470  0.8675941067388672  0.3073087007064497
  0.8753031810997727  0.6842361851418213  0.4466111630194255
  0.8772963050421607  0.9366184000443720  0.4282475765975013
  0.8138069344258835  0.8754510560958904  0.0724664087368133
  0.9368977630258080  0.6267768427204424  0.0553753511967827
  0.5000000195551731  0.7482715723736175  0.2389574447589055
  0.5074045219812667  0.7420956562507630  0.0077161456190368
  0.7450255412456117  0.7539526476062307  0.3818772866542588
  0.4974118310276992  0.5180246912309540  0.3744393776232157
  0.6299420209677523  0.5867089634290430  0.4333099073823696
  0.6178511871834705  0.8126688343388900  0.4447063609038753
  0.2440672130274917  0.5119477130427763  0.2563749570032116
  0.2617414802584335  0.5050146372549131  0.0062119976987620
  0.2655888801434330  0.7461402880467740  0.1428625365582152
  0.3958810124685422  0.3244741529365671  0.1903811016311790
  0.7461643749950791  1.0019159437610075  0.2443485747323184
  0.7344183680389025  0.2413098593948138  0.1256258036503380
  0.2496394886916543  0.0019354167446197  0.9813356997824743
  0.2504503166291256  1.0190739823870016  0.2508601180143934
  0.9910114252198458  0.0008626490733944  0.1191128325938867
  0.2465931258045955  0.2661333605476848  0.1348956346496556
  0.3675308408256907  0.0721445488545635  0.1780446500023765
  0.3045047836840303  0.1325990909041399  0.3166480353580747
  0.4392806366348071  0.4002569449415398  0.3179046758318632
  0.7590193167096896 -0.0213166224046524  0.9975910947316938
  0.3619095216103000  0.1999544956548321  0.4353276159550672
  0.3061062871925527  0.3734499249684942  0.0557305959632017
  0.4412509623365283  0.1191267146924729  0.0650673054481910
  0.0072636521858059  0.2592242643381966  0.2550125702189562
  0.0053460328083585  0.2455623714957617 -0.0017102286568723
  0.2428104331249909  0.2645311472714591  0.3860197628774466
  1.0151047562771696  1.0011046123302434  0.3801706835186295
  0.1242267785516587  0.0572806342796878  0.4483532113799239
  0.1218054473447577  0.3133489268846897  0.4526801695548647
  0.0584996154250005  0.3584965726556921  0.0634836419865270
  0.3653160641378488  0.4445371439645048  0.4345921038100575
  0.2456052390856300  0.4982242895879895  0.5042209644973608
  0.2432727949356978  0.4988522209187404  0.7567861606580184
 -0.0024500988762530  0.5169087922448772  0.6223612409557723
  0.1908548603989863  0.8634801943005579  0.8045519751486624
  0.0609630203101039  0.6225020085062430  0.8082619554862117
  0.1265256714927475  0.6948805537710802  0.6866704139897180
  0.1215560682369693  0.9284684786845205  0.6827874042768112
  0.1775461248353624  0.6230568097071413  0.5647067208092242
  0.0644874780822817  0.8621445377489272  0.5588036792498459
  0.1284038998723860  0.8081158976903668  0.9305903758724510
  0.1198720898313616  0.5453801245091413  0.9411222576751277
 -0.0159252783177771  0.5101643874966321  0.8678382666953484
  0.2615849588618915  0.7399245236223625  0.8759159244008392
  0.0027306826415991  0.7539710857777419  0.4989383242601164
  0.9916635664705808  0.7420431911872741  0.7543848315299126
  0.4335937738578939  0.6085213097012300  0.5654399435576689
  0.3126542894258674  0.8666978502473507  0.5565904619024425
  0.3723166768027996  0.9321936578969783  0.9321728713191403
  0.3695256362800329  0.6811176881192639  0.9478765750820920
  0.4397943552817959  0.8718492285462776  0.8210321606758203
  0.3151213577849009  0.6149827600233284  0.8274523598749072
  0.3825621170897897  0.5663075899572743  0.6897074797692173
  0.3776170216590761  0.8003197226045369  0.6900856150865750
  0.2568560846326677  0.7323624449389431  0.6217189818296401
  0.1941236098485876  0.1278210321304598  0.0677941006365072
  0.1222690326478806  0.4354599058640614  0.1884267435969865
  0.2556070388102423  0.2488759240796894  0.6329144553474424
  0.0692361455263281  0.1314273610826825  0.3265286260478807
  0.6217383784167251  0.1911723730425208  0.1875138888521665
  0.5560511440526791  0.1375626564349753  0.3233347485303744
  0.6876417980199879  0.1069397140601416  0.0553770248386592
  0.5671770106513252  0.3716471195565149  0.0577683937794660
  0.6213907132839518  0.3186811661882367  0.4403091214870366
  0.6393071425928425  0.0678202684389706  0.4393671871733325
  0.4958674470027905 -0.0010318118073689  0.3734874921928414
  0.6314953633428062  0.4202125820645731  0.1962987391953706
  0.4944037540346259  0.2615085277625446 -0.0044145207995685
  0.7522237542759443  0.2617319618154855  0.3833118004932926
  0.9346947185473882  0.1235157664991064  0.0448286285764661
  0.8096941131831086  0.3724414192109632  0.0682932232909807
  0.8752264927375445  0.4352086769408260  0.4473481562866692
  0.8811633584975758  0.1824995046271282  0.4308946520245792
  0.9249893811649710  0.3782258485983725  0.3184948664462760
  0.8099565717976888  0.1293495841377051  0.3115881861238926
  0.8700839816479956  0.0729072977711490  0.1739943961838725
  0.8819644492916210  0.3110589843882787  0.1832241891021999
  0.1794141134035940  0.3786903398786887  0.3227130112779346
  0.4998536752897301  0.2595339500416894  0.2535055639516085
  0.1319075041529258  0.1893723335263040  0.1984420492547728
  0.3173956949554561  0.9619640012400362  0.1546465488559524
  0.1753409988418669  0.9727903655491442  0.4182232397076275
  0.0359279756101919  0.8137090620399460  0.3375137924985471
  0.4558068384359519  0.8417248344835523  0.0851843617357531
  0.0840145833250864  0.7907613914888709  0.1558310478722094
  0.0694044037187124  0.9453787142172775  0.4711983611585424
  0.4714849508865108  0.9423342627993717  0.0287426915096772
  0.2809021510901108  0.6646196608259078  0.0450842301053183
  0.0331674316106936  0.5845268895144554  0.0411985015823851
  0.1297130477125754  0.6817496509776964  0.4366713911946779
  0.1981712931584513  0.8163309859500141  0.0472079845504161
  0.1679507158745800  0.5359481275733190  0.1677239567079777
  0.4081672380189809  0.5566045667339291  0.4630815270351717
  0.1421421085160741  0.5777388766812350  0.2409027182974252
  0.0931285810003591  0.5987029153668345  0.1323116596690138
  0.4150242243805680  0.6034750685622695  0.3600229358212491
  0.1616662529586358  0.6793173724465591  0.3642872319332544
  0.3385361413690825  0.6459846809884061  0.1167368129920283
  0.4161397423108010  0.6556625150019395  0.2573923493593147
  0.2970570530551115  0.7785442272846016  0.4685702357070487
  0.3334684022885219  0.9042175383843809  0.2426795859751611
  0.3384256200397119  0.5551173809330530  0.3976226750431973
  0.0529094011735634  0.9137710151255101  0.2895060764702209
  0.2040661719229497  0.6707925348185815  0.2876326560374568
  0.3577098365705220  0.7021589996602445  0.1936013579550686
  0.4148014180745097  0.9507935645068303  0.2211432338382511
  0.1985355607951759  0.5955565807672145  0.3346405037720436
  0.3806375974442871  0.8088967125376403  0.4386647732223021
  0.0889371053500985  0.6572846076359605  0.0033935147491437
  0.4272736662908632  0.7098416974192205  0.1482493242715927
  0.0913938075436287  0.9216226319917743  0.3584285320285807
  0.2463500446536632  0.9514902094907771  0.0929595792025056
  0.5684777932458207  0.0331057695991435  0.2261026066453427
  0.7083614190012293  0.2721932494801979  0.2360121794319890
  0.9545087338129893  0.1367049941636733  0.3367857623906142
  0.9620103672226409  0.0533696402831045  0.2720108314682741
  0.7889737328067604  0.3295134671483508  0.3106897775671462
  0.5965725352744938  0.2049092106005073  0.4088726899335633
  0.9460268109283267  0.1993996693822912  0.1573271441355796
  0.0804351760543256  0.8407029935831544  0.2377540452757989
  0.5227947405221349  0.2063438647810413  0.0839853179096402
  0.5455500685044334  0.2992025599578496  0.1346636308895547
  0.2641236639134732  0.7490905437371574  1.0063114188572111
  0.9969036839576738  0.5038808270888584 -0.0055819970649205
  0.9834454823445176  0.7529215585469201  0.3703988502238120
  1.0060878887185023  0.7795110638598923  0.1217371119393346
  0.0277272929058246  0.6848050436135266  0.0964088181561710
  0.4793822279754454  0.6762447812228655  0.3409644139246595
  0.1775875754478649  0.7962105044815623  0.2162576753204081
  0.0775502035324783  0.5375309106111420  0.2159144703048407
  0.4569089628203127  0.5665321424975525  0.2757439238572325
  0.2996889335543432  0.8731470099399049  0.3080472130499873
  0.0652005938007428  0.7119663022333211  0.4028382743961408
  0.2689133382632816  0.5749952786465287  0.0878793509288458
  0.4147947131555942  0.8384017176502883 -0.0062483568187691
  0.3255254184871528  0.8402597835619116  0.3729041456113402
  0.1798835755275286  0.8438874020848236  0.1198678397126469
  0.4001643312751351  0.9259539612945398  0.1265828293327675
  0.1718113229607073  0.9111162909860252 -0.0151485098278712
  0.2575289331884019  0.9339437892396597  0.3369892887064364
  0.9559814594110171  0.8431268004919478  0.0753114247359149
  0.7044910269115042  0.0847998147142176  0.3307949450212531
  0.1642726191040977  0.8599727253073409  0.6073232653751356
  0.3469178225969973  0.8276601481196026  0.8746615455681402
  0.4154817199370543  0.8214198526377264  0.5082571002010757
  0.0829503438229768  0.8254230563388598  0.7448346176579904
  0.2209479582192463  0.7275090385024704  0.4806514131016452
 -0.0091393615532800  0.5035720654959500  0.4984024291291089
  1.0098118002991472  0.7373630192439397  0.8883567916917222
  0.0470450683050938  0.7638843213675881  0.6643447626175649
  0.0389999143927953  0.6995161937093821  0.6063910153268391
  0.4708172850072048  0.6669342318879473  0.8402204399451875
  0.2011155795112697  0.7792506282981968  0.7180797517224581
  0.0568241620663146  0.5395283272418465  0.7323999350098686
  0.4750161015284551  0.5951524264675404  0.7903827801519722
  0.3008850730382718  0.8165101756078279  0.7787191998060884
  0.1025874945066210  0.7019692922419298  0.9271118534807151
  0.4275930069195167  0.7157669863613703  0.6735451939267706
  0.2848673594363774  0.5630271930474192  0.5885622068614418
  0.2073462701834216  0.5661170616284233  0.8535839728328546
  0.4294802715236337  0.9582666017575321  0.7072831626090759
  0.3444929515176058  0.6937168787047638  0.7072418776175565
  0.2093708824117525  0.6714504262413452  0.7882550941667692
  0.0555286739899378  0.9100715640678956  0.7837828975954486
  0.3555273324645321  0.5502777238799110  0.9328199131827318
  0.1382176464214330  0.5601976439046178  0.6782639929771271
  0.3432918311105201  0.9124625890338611  0.7338555802650769
  0.4122973378272912  0.6513356471317513  0.7670236829910179
  0.3484567844693620  0.6579656481703130  0.6211334370434046
  0.1548133441868905  0.6388757090336618  0.8598663182687795
  0.4218068275930617  0.6033636433424435  0.8687274444029656
  0.4053197858901529  0.8846749348548381  0.6015489762129129
  0.1058146566774605  0.8952813955847785  0.8805456522003675
  0.1456957536423289  0.8986138238321585  0.4966767414457453
  0.0637270716379067  0.6636835292784421  0.5229180701587260
  0.7510280440664683  0.4933360960031918  0.3648588405144602
  0.7639448814787742  0.5064988420730361  0.1226078922092650
  0.7494580763553375  0.7540459710727722  0.2421854576753092
  0.5172605999289870  0.4998349093314185  0.2440669379161057
  0.8258072941898834  0.5755637624015634 -0.0209623228638570
  0.6631800707712607  0.5854363282069651  0.2327013860085655
  0.6016520616108013  0.5753807271146498  0.1360936632490517
  0.9013073275644817  0.5893512846255283  0.3843283156366130
  0.6653542030422890  0.6651186440950710  0.3334489798281195
  0.8491439241590316  0.6617091864990250  0.1308401930261380
  0.9188382305824369  0.6645646490347518  0.2668990736069133
  0.8374128350243774  0.8972247341239665  0.2692230629338587
  0.6634156101739067  0.5330415309908004  0.1764067455720106
  0.8105151064276959  0.5201676842950044  0.4161922926708848
  0.0722357204709717  0.6029330600934142  0.6088807270555190
  0.3071086024199066  0.9113777214948038  0.8244044318320171
  0.4515349233459086  0.5241014998459920  0.9834483171027980
  0.3107811887837835  0.7886530131576676  0.9702872881895376
  0.2107295763313046  0.8176499026617297  0.5337113252820518
  0.0319046222921543  0.5850552291927769  0.5234230843392494
  0.3428449525042855  0.9443338288265531  0.6490691750738409
  0.1835563984886516  0.9518736019183961  0.8861819537537675
  0.0442092086406700  0.8095105832314525  0.8380453221062673
  0.4641906829884901  0.8148318427246795  0.5922409512029667
  0.1960536635236630  0.7182685665628264  0.9735764849740435
  0.0660081228101159  0.9552333610444930  0.9683504927611226
  0.4379248712654732  0.9091830892976818  0.5211146057215091
  0.2776212796167792  0.6663302814871355  0.5431132045663080
  0.1129805636509054  0.8052788724110210  0.6747474779961626
  0.4353886595712554  0.7913101735561648  0.9109271610475264
  0.2083357812521608  0.9378987278592696  0.5874070530080400
  0.7745995838081567  0.0566820600141547  0.0712365135182627
  0.1659945219096639  0.6015751821399247  0.7625419056119586
  0.0031570767806946  0.4885664382231823  0.7551364204627354
  0.6573605967204468  0.6981917525233068  0.4774380953472480
  0.3402244559077627  0.5928216412393830  1.0214117715224018
  0.5354478906191869  0.8311017873658226  0.3278777301788918
  0.6786928374981412  0.9633190879502380  0.3995340287124729
  0.8234269096511428  0.9626902273825217  0.1638012282753848
  0.5501708133912141  0.5848872451665724  0.0211763150791008
  0.7206082358644724  0.8352542735154939  0.0479244176171805
  0.8375384917771692  0.8004907292394722  0.4710257020962493
  0.9162901699789858  0.5272037251245141  0.4671214577002302
  0.7098110794993149  0.9503373626088291  0.0778099551592275
  0.7941311213255272  0.9559875205221569  0.3299804937659166
  0.7461160634783592  0.0119651485403434  0.3773814623909287
  0.7423150705090398  0.0095207398854050  0.1268830575040242
  0.7794137955162286  0.2331679018103185  0.2410887049750267
  0.4990911398214108  0.9956212218927891  0.2528345636037871
  0.8427296035396741  0.0730245016262211  0.9756210018675602
  0.6396228600499311  0.0875600494420849  0.2297358490469561
  0.5887027342271316  0.0931311471131128  0.1129855701943585
  0.9118208056072249  0.0678612793593861  0.3942275293373076
  0.6779497921717401  0.1598243597986604  0.3674111005517252
  0.8282282249911329  0.1495165451582474  0.1044686529008502
  0.9131205579828257  0.1406244310722744  0.2656671121163965
  0.8482731274244045  0.4043519505689069  0.2373157156571461
  0.6600507232752476  0.0374325597265369  0.1646992184459953
  0.8223924321979181  0.0349455574696168  0.4143453104970726
  0.5572220957223605  0.4356509617815171  0.2943955101895030
  0.7031504882455678  0.1627257770012183  0.2803104303336551
  0.8597141842459706  0.1934681096012728  0.1993295571490792
  0.9110819006983589  0.4600218083901609  0.2122773662025750
  0.5964546518183949  0.9575675012135714  0.4546871451404670
  0.9707132069044877  0.9164586628696656  0.0292457370808808
  0.7803910988457778  0.6841126954205853  0.0422166933630496
  0.5784936420012303  0.7910389410997923  0.1472468024635701
  0.2648056858200101  0.7360491409754913  0.7465349516978882
  0.2164794786475416  0.5048447742252445  0.6369877287566318
  0.2488688737589852  0.5019094695330084  0.8901726886068909
  0.5347093114460696  0.9262478139783842  0.2764795335567892
  0.7152514778889447  0.6791209613040606  0.2740548224616460
  0.8338588359367460  0.7087786629668282  0.2095193039278573
  0.9300893353689675  0.9708554851671617  0.2261484693659789
  0.7226963621811645  0.5818793034534637  0.3338370699611936
  0.8123839012472165  0.6143125462675917  0.0632750760621206
  0.9265454989203641  0.7202142205571502  0.1618625107801640
  0.5626630692381521  0.7102677517893904  0.3972605424106291
  0.7801522845580441  0.8121979093459473  0.2913505324836665
  0.9720266751039569  0.5673362149490987  0.2839863573596154
  0.5910994003327219  0.5321557152686405  0.2197489144728449
  0.3320077671583993  0.5982390608326131  0.5124310037916565
  0.6728896874999117  0.7900391438920473  0.2096573495804519
  0.5502191708879592  0.6498738908892386  0.0822024269933497
  0.5022261452441916  0.7503578351266955  0.1213235237255219
  0.4816682271919714  0.7887994137773844  0.3821054125179589
  0.5171939189779176  0.5033809573567188  0.0125052369162513
  0.7501243244764899  0.7649646919609195  1.0047518625156471
  0.6033145048942323  0.8479845451798925  0.2258938924859905
  0.9223627213708627  0.8416201478379892  0.9880408302694875
  0.8228820559522632  0.8429388479535388  0.3698144469194698
  0.6527739484847258  0.8636357477660523  0.1262325152649509
  0.9116804831617952  0.9215500220053356  0.1361042266365987
  0.5886786831730082  0.8964770124947871  0.3530193747616786
  0.6620140059374011  0.8846225944943196  0.0083727031083470
  0.5881126950397645  0.6601348459693833  0.9952502609880209
  0.9189942623266116  0.7841497552325529  0.4109207074666774
  0.9662112843061079  0.6748659355532871  0.3327849298336581
  0.0066843416113054  0.4996362972061894  0.2409698843268036
  0.2220467770211109  1.0462447748567945  0.3561618619721759
  0.2545343978639344  0.4944044217731511  0.1264014996169357
  0.5781147536224299  0.2869068815131918  0.6629946332091693
  0.9067828527038776  0.2888712217553053  0.9157370619566129
  0.5665468586575920  0.1681499406557303  0.4994485953392863
  0.6429017349120013  0.4202300266337873  0.5014624596754667
  0.6222439462747683  0.4266316231839594  0.9064811603123090
  0.9162275622647604  0.4018583315241809  0.6256652534118546
  0.6573556744571590  0.3212982198511249  0.6193223591848441
  0.8476497852234932  0.3490983522465161  0.8847630507637179
  0.9164377177478049  0.3484552424582404  0.5016461580491778
  0.5750553200179207  0.3799279931840449  0.8115411393323160
  0.7441777209566036  0.2504628465318805  0.5139104418605682
  0.5033551784702995  0.9939680566756560  0.4910181167648111
  0.5132329592964903  0.2436929717985749  0.8755431604146420
  0.5112432719144177  0.2541061869276544  0.6253077304159949
  0.5215615112763566  0.1623864870096885  0.6015687857307503
  0.9579237720658941  0.1813905214824822  0.8419767881324425
  0.6018720967760678  0.3367720748291815  0.7235002969099120
  0.5943226782552751  0.0485379947318100  0.7143803005450029
  0.9439208391293031  0.0540130493132344  0.7802895625101466
  0.7855746416010232  0.3190098303020812  0.7691835734440096
  0.5619783604101519  0.1956320064473464  0.9150838458292101
  0.9415888771131472  0.2057424612941181  0.6582762918582268
  0.7907875873415855  0.0925737984431771  0.6108605253946223
  0.7053323381686084  0.0971066617807464  0.8453752187757808
  0.9361072210041352  0.4807149820719057  0.7097379934616714
  0.7443315967401465  0.2333005384553895  0.7424437649376767
  0.6973496554742633  0.1639308596131117  0.7918077208493206
  0.5539978990273751  0.4420980712407985  0.7621195188167169
  0.8302660974720081  0.0291542772326499  0.8854897357972983
  0.7948808723927873  0.1839823036204109  0.5523116776813363
  0.9546509986759760  0.4143378865717941  0.5423476635985900
  0.5570830444751745  0.4457840007585601  0.9690129040513409
  0.6909830162169172  0.2043653071202968  0.9668365048670691
  0.2868859643940508  0.0840409602822871  0.5944737177015618
  0.2196480181561948  0.0586913975878394  0.8349392826178825
  0.3702186645019001  0.4534739995974330  0.6806045230734413
  0.3257462714988127  0.2062608043147104  0.7349662778333267
  0.2155584463015520  0.1568590033576511  0.7909005021855046
  0.0450458754260067  0.4111851059031399  0.7979003767024745
  0.3769635962838301  0.0547851972397808  0.9323663573947080
  0.1911376119726937  0.0485096804620072  0.6599421106955154
  0.3268674488075737  0.4312503816420382  0.7633448793901356
  0.4100859228079257  0.1552128999225361  0.7299701133482877
  0.3546476929383294  0.1717062883450423  0.6316269590386273
  0.1737469300324262  0.1403916406745707  0.8633582279543751
  0.4205929345358894  0.0933591263006923  0.8656743475499258
  0.1125539804138456  0.0806199880479678  0.6472491466436016
  0.6793568188309828  0.0401902379448917  0.6606259341987577
  0.1591928058749071  0.0887154769177335  0.7563214969330719
  1.0086493561861785 -0.0113944835633176  0.7582171582924415
  0.2135338082816709  0.2361449921224411  0.7476118887753912
  0.2522540030416011  0.9934390476921886  0.6325588691494258
  0.2814857949093029  0.9948036523709813  0.8784903402289787
  0.8169263284879874  0.3831389329229874  0.8115673460914640
  0.7170889358545968  0.4169903923463172  0.6009377115612690
  0.9147523015362576  0.0298415838502338  0.9622215443271918
  0.8113381427325610  0.2857246591435175  0.9755948011884737
  0.2635668764971692  0.7663544632855549  0.2580849981865882
  0.5336730633940716  0.0659005342429097  0.5296489232490882
  0.8241230051665061  0.4545689274291144  0.6547412510965965
  0.7045503297321896  0.4687751533556750  0.9018598836884824
  0.5382716149774579  0.3258554264027512  0.8391847404435862
  0.9603694657981630  0.3302101808841060  0.5876609821576644
  0.3452483566022745  0.0749687910347317  0.4627562881373521
  0.8447110320190369  0.4004460275294351  0.7185220816293177
  0.9089777185157315  0.1599321311078134  0.7631292749974400
  0.8663461327723665  0.1676583195142130  0.6750627760766043
 -0.0009460124154641  1.0092369253246680  1.0049231218683699
 -0.0318535240313469  0.2196333241890316  0.3672230245154142
  0.9985575842225826  0.2549988755390687  0.1248346155854165
  0.0410200884195222  0.1796657987026514  0.1085325756462434
  0.4606831063656575  0.2007281922052341  0.3484179358027606
  0.1730233177581963  0.2850852159727682  0.2196840903937591
  0.0807089715342513  0.0473465808883948  0.2170102213272350
  0.4574465346819757  0.0867854719521045  0.2877103008090880
  0.2837290997850137  0.3344279139298182  0.2868110309075422
  0.0481609349994384  0.2227108557398557  0.4117541364050110
  0.4639560399000179  0.2196343371218978  0.1475715277545355
  0.3129603527752655  0.1466869653983318  0.0786105314395135
  0.1940665554807718  0.1108976089031811  0.3199718187750111
  0.4166591642014731  0.4672313019652368  0.2089948307547354
  0.2918699059665255  0.2712985232902973  0.9569834008642827
  0.3224144675434559  0.2614314289780215  0.2255154249955270
  0.0327027249513814  0.4160972213748357  0.2825609182109651
  0.2850713542899294  0.0131580026260580  0.4102431742940923
  0.1727393819144095  0.0290052490746570  0.1584043060218125
  0.3264191889312330  0.4147526352956867  0.2643910943178316
  0.4028922863436454  0.1700560039821634  0.2741066783949329
  0.3706419650868732  0.1996162716018869  0.1839885024258468
  0.1370280467454147  0.1718346048615213  0.4071710127136037
  0.4023404894262482  0.1014138570477720  0.3768871469507088
  0.0976632521766930  0.0866929131535631  0.1478081296346052
  0.1509266898565479  0.1012281270804766  0.2320399122116709
  0.3305302535257169  0.1002036972037151  1.0162128983650955
  1.0289474193146297  0.9865137462816653  0.2462367035284982
  0.2384649494512200  0.2515714259615426  0.2631071507029899
  0.2707808284912457  0.0535538016659393  0.0920994661684511
  0.1998089794297114  0.1928893299168601  0.3077872194114172