LLZO_2                                  
   2.00000000000000     
    13.2360699999999998    0.0000000000000000    0.0000000000000000
     0.0000000000000000   13.2360699999999998    0.0000000000000000
     0.0000000000000000    0.0000000000000000   12.7017059999999997
   La   Li   O    Zr
   192   448   768   128
Direct
  0.5047443760272279  0.0018087276328640  0.1384062807134868
  0.8727409305004344  0.1945490873443954  0.9358474961526918
  0.8719442927228588  0.4329215027066012  0.9369750535324344
  0.8263872065140945  0.3875687680622513  0.5662057837775382
  0.9432574213911431  0.1349382215987760  0.5595678858184514
  0.4918671012696345  0.2539072283710010  0.7400034093739898
  0.4953434349299413  0.2424857760575872  0.5128331175612432
  0.7355589341444193  0.2444815327558497  0.8732579050280396
  0.4870023950901533  0.0035441254641349  0.8699711887444412
  0.6251849846972158  0.0648538513403920  0.9393351442722823
  0.6307274487557586  0.3057884901079012  0.9541574569019832
  0.5642498970253019  0.3674095756193076  0.5668743581751179
  0.6930051584098473  0.1208666916574058  0.5642450773385408
  0.9371624478546056  0.3639792840938872  0.8142015367864756
  0.6129375637126528  0.4420122914022019  0.6936283469054162
  0.6870343844639877  0.3738769869443907  0.3159287436874036
  0.6778274145360753  0.8758232193864344  0.8217655685264450
  0.5625953365312757  0.6227607465014121  0.8141708662675300
  0.6208809082948296  0.6815473819756532  0.6872152426135615
  0.6270499370985497  0.9297069955249376  0.6901699920826314
  0.6841995079195120  0.6239970512328363  0.5638442264205978
  0.5657652037227665  0.8729874763374600  0.5512188367815075
  0.6142411209851989  0.8143006522633321  0.9498226851262014
  0.6385566254750213  0.5841650849560565  0.9432627264546748
  0.5115807590748220  0.4941415806960123  0.8889063330551343
  0.7471083766993361  0.7644371229110256  0.8802425760197971
  0.5119054476993944  0.7564132087526163  0.5009153902313099
  0.6216813840248567  0.1912980616735061  0.6650039086693104
  0.5102394356456676  0.7464690740247839  0.7413857306048989
  0.8097121998758163  0.1384526213898303  0.8148888727226848
  0.8462776803916344  0.3003400216726109  0.6941557671799623
 -0.0127427868749822  0.5002593931333260  0.1246916942396854
  0.0107287595849231  0.0055861354757816  0.6230230500717665
  0.3814765180479768  0.8049748876064782  0.1868082603974723
  0.3848684157253953  0.5617404078985115  0.1986165631083090
  0.3103544532860712  0.6123597368610779  0.3079162476060816
  0.4442942930387218  0.8614904345083272  0.3261487358310791
  0.3736766466231009  0.6885875148933265  0.4374890459657643
  0.3658231405300544  0.9194277182377641  0.4454016890559440
  0.3148100181984523  0.8736574625459724  0.0615660423150633
  0.4304343285140732  0.6298749489628243  0.0571892573590787
  0.0065893572593835  0.7500518890858999  0.2402845955485946
 -0.0148149401497892  0.7710579240263832 -0.0071081162965106
  0.8726620352215497  0.0796567047324437  0.7013055339171270
  0.2502984839673719  0.7399232068595387  0.3758206571761597
  0.1197366245046949  0.5692365899984214  0.4497834604093660
  0.1320327396297595  0.8085584133865373  0.4350470925230829
  0.0576103045543874  0.8706423746954247  0.0731073498541472
  0.1810621219741682  0.6261529542275008  0.0528479934302082
  0.1086135647637473  0.9373938225908494  0.1845853145879186
  0.1207838090213112  0.6897434387546061  0.1871460981867428
  0.0692274224495743  0.6165273412097778  0.3171897125813914
  0.1856025064128305  0.8739997797697360  0.3093831616002242
  0.7376847108786798 -0.0129865581831726  0.5176060832844032
  0.7473280090247781  0.0010781301539911  0.7606873239011852
  0.4880200119606223 -0.0009672359558269  0.6235578809188551
  0.7582346537090694  0.2547694904647345  0.6102493680719711
  0.0026840689284226  0.4920242938341422  0.3776025031551788
  0.9293892173522440  0.6311642963976254  0.5622507142297820
  0.8066040744389908  0.8713948131332498  0.5679212126651573
  0.8661709418962688  0.9390918654274705  0.9410774477048471
  0.5638650944494633  0.6169435081892866  0.3168950263621623
  0.6848802498151091  0.8611832181839184  0.2983401117070299
  0.6822558630588405  0.3743432552957133  0.8184456609941625
  0.5522278881499502  0.1122523608649771  0.8225605167330405
  0.1893304248932435  0.3862952004142673  0.8078126081527687
  0.0555630209337727  0.1231572740130492  0.8103384546556555
  0.1225537380343454  0.1877363473959392  0.6777315325386615
  0.1081140177641912  0.4315503621166088  0.6958863336757481
  0.1966889002482261  0.1197247790905291  0.5550864400340764
  0.0692543170979737  0.3685867188085272  0.5603662976373781
  0.1165292648255537  0.3271384099330833  0.9303995109281781
  0.1254568367390127  0.0831088664385751  0.9462299286463104
  0.6277828927801461  0.6878352560382197  0.1984959054919918
 -0.0085855317678393 -0.0065885415993608  0.8816540170677230
  0.0105665127736511  0.2640909327382038  0.4849253087814897
  0.0091560985134140  0.2679493800547520  0.7598390363835991
  0.4429642822223127  0.1303517192188197  0.5687325948944255
  0.3119198610673219  0.3636356618267711  0.5510023858899266
  0.3883246533646361  0.4283754179451976  0.9475796748090383
  0.3787893311570996  0.1891446026689465  0.9423054580393633
  0.4299343011942151  0.3591590254117289  0.8181628176465787
  0.3287534623357932  0.1298563137936557  0.8156828592149646
  0.3649275273002882  0.0782064324120079  0.6972117574130597
  0.3756630690354150  0.3185251246452777  0.6893415564530074
  0.2520583427941248  0.0032530662769123  0.5021551757120056
  0.2389499292890016  0.0149544503701173  0.7428540469967996
  0.2437628579163068  0.2539607499067463  0.8677874083993868
  0.6291836861217471  0.9438765322433045  0.1708097674552499
  0.6775916455590943  0.6273973552730792  0.0728903447283793
  0.5582151739438078  0.8729734735987380  0.0798311094624817
  0.8815090283061366  0.6835891623356661  0.9455418450462745
  0.9440242408467929  0.8639186620474212  0.8171728335368422
  0.8168389820868603  0.6261353227257922  0.8198340671032802
  0.7473234303267471  0.4922110398310904  0.4906437831883662
  0.7476353026930225  0.4970003731239577  0.7527552905560705
  0.4989273093484952  0.4877815769293077  0.6215709460187635
  0.7525254737178256  0.7365656597873989  0.6258315373635568
  0.8918921835668659  0.8184818746520861  0.6841160099183806
  0.8771571004396094  0.5686600719883299  0.6793056265796213
  0.7479177896364551  0.5068333121774110 -0.0028253342566088
  0.7477255888198546  0.5096551914000633  0.2485729327187374
  0.5007473238123898  0.5052955674863503  0.1297188292792488
  0.7395554785129408  0.7538980057647451  0.1227602654071288
  0.8840342241771155  0.8059663626462107  0.1855152165820083
  0.8612466356283763  0.5723420920032659  0.1873432893697202
  0.8182753096504518  0.6272975381204922  0.3138276542667178
  0.9337740314425746  0.8747612630617352  0.3108280477439304
  0.8823501125495041  0.6821073456259622  0.4421185051601323
  0.8567285590507222  0.9389150026641797  0.4435575415002195
  0.8209605093982119  0.8741248490982123  0.0670555543416736
  0.9327490916641989  0.6306205105725441  0.0627967669031687
  0.4870720472445417  0.7406569867361077  0.2510574385244574
  0.5006702286737349  0.7498891422448145  0.0071264375889718
  0.7586117994868379  0.7619677276486420  0.3840141291133408
  0.4992716173245165  0.4915288237446379  0.3671591190389683
  0.6294938579673769  0.5565302650768518  0.4256221699839421
  0.6344317243920543  0.8140524281891490  0.4349566370021096
  0.2566473678547261  0.4949531592692336  0.2425258277639858
  0.2654116352756129  0.5063631552244325  0.0016106317085860
  0.2512057001884647  0.7388949753857598  0.1343736562724260
  0.3768699201541336  0.3026614898416073  0.1755317644305592
  0.7505538404380322 -0.0051648114548993  0.2479714456680510
  0.7537456163072762  0.2459646264997151  0.1287099244972447
  0.2426119989078451  0.0047954616094587 -0.0159396814199158
  0.2622978376790431 -0.0001316079016481  0.2595136149678365
 -0.0061313992425220  0.0000571230103623  0.1158605308626688
  0.2410745168353385  0.2522240466919545  0.1260131374551776
  0.3785369826274181  0.0544722434949304  0.1924117792483304
  0.3193604094605311  0.1309709036416283  0.3084234493238165
  0.4292666744832562  0.3596232315324359  0.3057380173052978
  0.7644425095683526  0.0043681071086494  0.0000774353915752
  0.3649919740110368  0.1878689830691729  0.4467340074813635
  0.3069815905589471  0.3740322776241599  0.0553107238881225
  0.4321513189449500  0.1175256214141493  0.0687412463917184
  0.0077283310494751  0.2508242615907288  0.2424455175985214
  0.0003780955567774  0.2479418006526724  0.0089262375677127
  0.2439727678916206  0.2472716497140661  0.3677062037994984
 -0.0016917362766655 -0.0035790383662069  0.3795911037237214
  0.1227856222584266  0.0590629677299553  0.4346065363366839
  0.1357473635099171  0.3122625231097367  0.4201054953844979
  0.0572584982168927  0.3724887815879797  0.0690502184040718
  0.3744956177788581  0.4348660487566260  0.4326030574530705
  0.2585340756038825  0.5002324879357356  0.4877329961333221
  0.2661310333765511  0.4971454732554663  0.7499319462058133
  0.0015251181236448  0.5067238354993698  0.6287591956366052
  0.1986697419220954  0.8784705187935584  0.8155932938947460
  0.0685946402204591  0.6279182395869403  0.8281668064692489
  0.1166615312917354  0.7099945788010048  0.6847787691886226
  0.1218968486688236  0.9379296139449360  0.6903385976752222
  0.1894436155756505  0.6124120613457177  0.5662248024980644
  0.0645624011374412  0.8702397773659220  0.5453169942910203
  0.1180446340114263  0.8249758737104871  0.9479288076913162
  0.1269937339722854  0.5447637471926022  0.9403750726037160
  0.0063295341184815  0.5010001653492309  0.8741593102691908
  0.2473888946614310  0.7511596800948719  0.8721143252363210
  0.0028197247769627  0.7510786220328478  0.4896080980477158
 -0.0095500712638654  0.7427397769779666  0.7428376571542648
  0.4309147677362501  0.6247344283192433  0.5577268448623719
  0.3108388673485691  0.8791851850356011  0.5656825494344971
  0.3793435175340752  0.9466534997069836  0.9363288312659517
  0.3655784079812146  0.6900294160659598  0.9364868620515648
  0.4445828746738437  0.8807462759041932  0.8208657248052159
  0.3116406155263381  0.6354396291909740  0.8082868391900381
  0.3672531229534318  0.5655097651485209  0.6778801912425212
  0.3858626562834638  0.8151835933318300  0.6826045115757899
  0.2525053023628488  0.7560041974323961  0.6192419546180367
  0.1913024046717558  0.1169053591738013  0.0725446666519951
  0.1338556050153430  0.4414682265564161  0.1890468015393927
  0.2596051653274865  0.2479751846804645  0.6162913514161420
  0.0748034161395666  0.1272247783006503  0.3162722755019972
  0.6278817820622201  0.1928285733972680  0.1915625092559315
  0.5624208876603010  0.1090605716115654  0.3055789237729441
  0.6883583791825779  0.1282969235899105  0.0644834114807572
  0.5611665972987897  0.3935676019198378  0.0540673091674432
  0.6205611769345724  0.3224848651291337  0.4218339500670673
  0.6199011400864036  0.0712000173268187  0.4364374188955845
  0.4941485578310129  0.0023584071773771  0.3773003599223685
  0.6247150325535493  0.4229715515068945  0.1877900591533691
  0.4914779223955174  0.2461964918567783  0.0046796741680662
  0.7584491809116310  0.2449329563071436  0.3751745952165023
  0.9329334329769361  0.1190816081539692  0.0651008822650334
  0.8086493421994517  0.3751074204710316  0.0733355887307623
  0.8796587265843639  0.4367353905825968  0.4336851591537950
  0.8638542412811395  0.1830653721842403  0.4368703915696568
  0.9142378723890737  0.3579811503949997  0.3171471958184450
  0.8093554502620842  0.1124371411648492  0.3044703518483316
  0.8799505553861435  0.0627461641381464  0.1941368937567040
  0.8928175325654600  0.3049144573996174  0.1854681763982775
  0.1852766662584486  0.3771605773098344  0.2966682867017515
  0.5068988477500730  0.2504239410632980  0.2498503724544270
  0.1280338965410190  0.1736495318048212  0.1835861429890980
  0.3153482428777925  0.9530075497610314  0.1687546274175826
  0.1487389437342407  0.9427410896100752  0.4103297139697121
  0.0368851075614673  0.8269818458377607  0.3462237192094662
  0.4449161878344782  0.8519679718098256  0.0931513263964343
  0.0748449740919002  0.7927839357418625  0.1660499438202261
  0.0719830580179592  0.9537290704505037  0.4578895731792894
  0.4722614134224190  0.9640662645144924  0.0256269207845161
  0.2799109285796457  0.6884141993784105  0.0368378511880971
  0.0422486377836735  0.5749363675395497  0.0276445945030449
  0.1493090903692353  0.7010155667113932  0.4508801909820609
  0.1997626052939839  0.8098742443179169  0.0422599699713461
  0.1658611082444421  0.5361163632444357  0.1633747349285037
  0.4126295036166693  0.5341826488983618  0.4780511306773530
  0.1437142672454918  0.5960784903439057  0.2250651381124737
  0.0947205514415878  0.5882347503359081  0.1365500332295393
  0.3966452577182545  0.5995357342215178  0.3735489929456018
  0.1587757362746086  0.6508576142168533  0.3758488275405782
  0.3459106351587958  0.6643158063292897  0.1248958484697024
  0.4126497576310788  0.6471833213787018  0.2610965534537333
  0.3330503877864724  0.7880098297114371  0.4575161667858826
  0.3381208850156439  0.9068710663908368  0.2507934130643346
  0.3280978082793874  0.5325679453884197  0.3916183322729931
  0.0438119622564766  0.9326897609929261  0.2909679859881602
  0.2149903594030509  0.6504226401028120  0.2846143110620615
  0.3141453520881626  0.7015048992831355  0.2262506908012314
  0.4207166216341045  0.9603925658939058  0.2208136705859496
  0.2038439034909135  0.5692782705797187  0.3388722452779607
  0.4338423094291252  0.7982526246300122  0.4363220668587690
  0.0811256492796448  0.6745001973446606  0.0249139037147583
  0.4162422211769885  0.6943560182165998  0.1674603947972510
  0.0867699768325389  0.9123544083642153  0.3587318579434034
  0.2530770827253571  0.9669761837015816  0.1021518297360000
  0.5990281888453973  0.0416553778779553  0.2149884889326322
  0.6883025488394380  0.2876212274231657  0.2304566708805583
  0.9620015520771446  0.1688607132686450  0.3389562799552112
  0.9758520722903378  0.0598164270331924  0.2776322488882429
  0.7809960744194386  0.3188165694085332  0.2830820967359934
  0.5567518811830795  0.1992940273681476  0.4186318729930896
  0.9463095797469367  0.2041403197500303  0.1522709415194372
  0.0897041790486333  0.8495607488468706  0.2602794739496662
  0.5296499535521320  0.2022805677173837  0.1111998644905831
  0.5488698278536643  0.2839489283235895  0.1475749333898006
  0.2468627435825535  0.7502217969987097 -0.0015011722872927
 -0.0069093690506533  0.4985436403065522  0.0068073936748132
 -0.0037810626966466  0.7449593783647229  0.3654942374980044
 -0.0007401707007093  0.7498266261942342  0.1087776051848921
  0.0339395763501934  0.6579503495238748  0.0920004149369102
  0.4565425028659521  0.6599649555971155  0.3446484657990439
  0.1815729537975856  0.7967717775267492  0.2271013912686310
  0.0742605498423769  0.5243919024013013  0.2130943093661944
  0.4590551115736333  0.5788156646390679  0.2813971406240924
  0.2884231438243061  0.8360850292813986  0.2773755097505403
  0.0573941158247313  0.7095929180373125  0.4039410597475771
  0.3222617910529668  0.6178835800001682  0.0478877370401748
  0.4210763483183290  0.8421272509766418  0.0105729146592290
  0.3359168775592453  0.8285709010211068  0.3466203182100529
  0.1671145365703259  0.8451241558828534  0.1372892928199135
  0.4121007133745692  0.9119182628969232  0.1503604486660256
  0.1986242238801906  0.8929162148921556  0.0662115099278325
  0.2929477498588892  0.9305830865429302  0.3330221834262913
  0.9563299249658315  0.8267382587436289  0.0902936958847980
  0.7102574316390772  0.0604333901532704  0.3513165161388186
  0.1706337899162058  0.8583442927893736  0.5948304548862352
  0.3284383182439726  0.8297554841831680  0.8439178187817672
  0.3977604006340560  0.8287916241969304  0.4920873539629063
  0.0886988169294474  0.8399836112836946  0.7560872838051754
  0.2479730984390269  0.7426627142004125  0.4964152294108928
  0.0067909895533865  0.4890753002662827  0.4880341259063527
 -0.0149248217210263  0.7473308991642856  0.8741621026434736
  0.0317078879774999  0.7912230426666480  0.6381491500827159
  0.0293686406889539  0.7001287669412862  0.5884897899428746
  0.4715456005498899  0.6791913186737597  0.8400640075504403
  0.2061800667087612  0.7905765689619235  0.7395495006153152
  0.0700465130303786  0.5379867946901258  0.7231386463490374
  0.4656038398182815  0.5667635771176321  0.7859442409579381
  0.2949477585954124  0.7942389085467494  0.7829728548565849
  0.0555280290038129  0.7040148207844710  0.9134692832969526
  0.4195185143468146  0.7147190747458749  0.6533490795356641
  0.2880036715925688  0.5495370678959127  0.5917083970053997
  0.1965698372172843  0.5970592186227532  0.8218770101067353
  0.4207502002715084  0.9671858964230621  0.7103227050935302
  0.3540509627929235  0.6923059385698956  0.6989170473964471
  0.2086969581156164  0.6837892653381223  0.7957012877475690
  0.0292624277682487  0.9303620847536409  0.7737886346537584
  0.3341446133026671  0.5354276825940758  0.8933997670327308
  0.1220898025630738  0.5686114237936262  0.6644159692177463
  0.3437846757107421  0.8947120126474066  0.7737751456020048
  0.4208219556736207  0.6589406906513696  0.7373016456126611
  0.3286151479671985  0.6655073016116695  0.6188079261435209
  0.1603495215066652  0.6637976659362922  0.8944684098892290
  0.4233371375774501  0.5966784400184659  0.8573882249451406
  0.4030024994975800  0.8995928908009205  0.6234547736139334
  0.0842140875849238  0.9159270376694361  0.8520731173070503
  0.1685374081450093  0.9001873661512784  0.4852130967543300
  0.0783086228049947  0.6765153229928026  0.5033524584825370
  0.7487527244985901  0.4925785399596525  0.3587545922291197
  0.7496404337004302  0.5026898683561196  0.1260309320363367
  0.7540001706754553  0.7560059472933925  0.2598539292129161
  0.5030796385737922  0.4994319412161614  0.2511993954531802
  0.8276024404761257  0.5941828005999226  0.0005814740516031
  0.6499186545392767  0.5925929015277047  0.2479352818356052
  0.5877284895260174  0.5868924915457019  0.1244492948072315
  0.9118981881240860  0.5802040602351924  0.3944525011165141
  0.6672721465172083  0.6572072304028206  0.3744503181555247
  0.8524924505544195  0.6605943466088727  0.1224889416750943
  0.9146670545819897  0.6749375009603571  0.2206130071993586
  0.8435413802547540  0.9018103455549358  0.2544226356315689
  0.6909661997732606  0.5376190903593555  0.1556549668589358
  0.8263311663528212  0.5443522109482147  0.4030222251883634
  0.0758123902075822  0.6247526498359081  0.6201431091880439
  0.2948712006748760  0.9209966586140893  0.8460101747010762
  0.4206232868882430  0.5375611358627479  0.9647387951832768
  0.3253752109245923  0.7874591172773385  0.9611737070107528
  0.2275064367936719  0.8213932514491951  0.5207866376484889
  0.0229366691893678  0.5751278687813899  0.5361823642100464
  0.3425502535714279  0.9578515171362262  0.6689934981455206
  0.1899802403686016  0.9600561280141511  0.9030704731282515
  0.0381114263369731  0.8344614108658440  0.8453353282804278
  0.4595785534339579  0.8274052472074134  0.5857799225922471
  0.1559845029154170  0.7137828032781888  0.9732514042565421
  0.1182516031254876  0.9405906792190607  0.9623979154888407
  0.4545558369396834  0.9110079715012829  0.5327262770749055
  0.2935383421024168  0.6728344860229091  0.5486973425880985
  0.1244946881896783  0.8244473155029782  0.6725148932359980
  0.4279194616722377  0.8113769794340544  0.9289444288617222
  0.2058402486539397  0.9349340475781462  0.5964886268785549
  0.8083783287698701  0.1209758886653682  0.0572235252328620
  0.1546377745194696  0.6177478599286783  0.7334702561454003
  0.0090344066387883  0.4980776981244692  0.7471752669188105
  0.6647864770947972  0.7070239469301318  0.4591858883543588
  0.3490614051319764  0.5839756208148204 -0.0310562931846355
  0.5559270155309110  0.8369574686891451  0.3412490731370799
  0.6937856582952213  0.9614284476215421  0.3977543584956524
  0.8267206356525736  0.9590328544168301  0.1574274334221584
  0.5412972643770227  0.5689744529570523  0.0338573909285224
  0.6950465643373152  0.8345643518431675  0.0330842604807508
  0.8126084422968491  0.7753972747259760  0.4648065235742133
  0.9344659484262309  0.5448870832066258  0.4764229804206954
  0.7272381107894509  0.9400960785308016  0.0898598398904992
  0.7784560570822247  0.9344911135797042  0.3368271923160289
  0.7606422017521700  0.0105328729112539  0.3922671869882665
  0.7614386317343937  0.0087266058046154  0.1200301587338734
  0.7923917017750849  0.2276211184812847  0.2254732645187327
  0.5111202519662315 -0.0053051507086704  0.2640886717021529
  0.8525613577586469  0.0971360686117253 -0.0124433967122468
  0.6691530515394907  0.0868525812738646  0.2603698262342167
  0.5859766648900305  0.0806784017284691  0.1442101961953392
  0.9117188359613355  0.0888600780494449  0.3805588636370004
  0.6732449909230018  0.1570950115162940  0.3442348440089134
  0.8371039452314651  0.1617691670938071  0.1297234145336114
  0.9308509601381254  0.1306062736527901  0.2711805694238065
  0.8462323999755456  0.4070904321293402  0.2480794119743489
  0.6809778392995401  0.0427245629960784  0.1591089379781494
  0.8474475069839399  0.0538421322051188  0.4357713241141211
  0.5207729709411119  0.4178200964914940  0.2763897115069070
  0.7116717319302756  0.1943723863991791  0.2755531677022630
  0.8762072912674086  0.1753462257872707  0.2086066111071110
  0.9242685398882824  0.4636749230973524  0.2200407863734619
  0.5929414534603937  0.9713209388515739  0.4756469970911712
  0.9575336911873856  0.9285509474232535  0.0498157400421301
  0.7913756227347019  0.6624534588321365  0.0503110920528492
  0.5718473704693472  0.7978401028127172  0.1587655498430561
  0.2660904766334819  0.7341494735548041  0.7207917015361032
  0.2154638124116476  0.5101042098035660  0.6573925244864780
  0.2463003484703430  0.5049479368387613  0.8679447578937758
  0.5519968140704745  0.9371912847048693  0.2843983398134000
  0.7302647930899206  0.6930667283024000  0.2964842636559461
  0.8214290230939268  0.7099665644621262  0.2145095517820723
  0.9049066072959974  0.9475808831481441  0.1942244775988651
  0.7065166123004001  0.5744752081030067  0.3365080609410597
  0.7806687489759268  0.5900771950720288  0.0993055241695545
  0.9284032805955708  0.7288533181875593  0.1534313285335649
  0.5587218694919119  0.7111171483072615  0.4063909461258102
  0.7858055905921755  0.8277916449326805  0.2926918512057149
  0.9496004412196373  0.5520614603505462  0.2671060340150842
  0.5785821696934330  0.5413705782860890  0.2155619427011159
  0.3431920738478113  0.5973254130257725  0.5061795196245176
  0.6903149560621255  0.7782308636717611  0.2361170416993264
  0.5252114603765431  0.6799439047201188  0.1070039673595368
  0.4923591045916776  0.7529194811739193  0.1337465274103990
  0.5036948855826612  0.7631642372792189  0.3661183725182054
  0.4924672912587570  0.5021902384226821  0.0054260419404001
  0.7311741848034247  0.7448407416376033 -0.0106643614712543
  0.5921695510486714  0.8300179910489702  0.2505512074064272
  0.8942997260478592  0.8615725287605819  0.0000539187958789
  0.8518583596333047  0.8406196445528014  0.3862211098082723
  0.6642838891666432  0.8295621866919458  0.1341341656257408
  0.9170261051637565  0.9038403107017455  0.1219300011133836
  0.6105176605895415  0.9163005167914653  0.3942044111926075
  0.6568614317661214  0.9307951597616622  0.0048730540662318
  0.5758043013898215  0.6673115076878785  0.0001508815331004
  0.9199591679923199  0.7956905966989971  0.4048851821803532
  0.9523290979731042  0.6493211604170123  0.3203642639952086
  0.0130314680579729  0.4813254954055887  0.2546938962954183
  0.2380915591594137 -0.0023017120890362  0.3795652447441485
  0.2788205261967369  0.5542303224206913  0.0962158846386438
  0.5771952856359098  0.2848553661701639  0.6490035028035260
  0.9447029744977763  0.2646302426608513  0.8968544662234190
  0.5822177224173274  0.1511969329089780  0.5278282268345506
  0.6506919240779397  0.3949676845753669  0.4995036919566147
  0.5956517549524388  0.4187278625563155  0.8977348317536902
  0.9263713146503655  0.4055788458472050  0.6248014095334373
  0.6557771192644332  0.3452370906274878  0.6297741336720148
  0.8343108220212505  0.3319808408891747  0.8844390173643405
  0.9105682805915443  0.3495343899500657  0.5046021003782196
  0.5596268771859001  0.3721855239030778  0.8099952781502012
  0.7232400586129997  0.2246626987290817  0.4926024847628853
  0.4995910317717031 -0.0038071114022600  0.4946031011624605
  0.4779841141344694  0.2407419044207317  0.8684429705034755
  0.4921472794932705  0.2524788438828925  0.6268037332277827
  0.5426659100540943  0.1899449715650438  0.5936235805865357
  0.9669387284685459  0.1912335750976242  0.8451906687057515
  0.6032515428164268  0.3325631710355759  0.7210645476990741
  0.5733127312856577  0.0277302987569251  0.7224535718571833
  0.9456556469493380  0.1036994769710496  0.8128881426192871
  0.7775104154951923  0.3121076549905304  0.7786728717602106
  0.5711377358803781  0.2217296548587202  0.9098148689622619
  0.9240351357931609  0.2220024051003364  0.6663971755457921
  0.7928266001320801  0.0737719842648945  0.6126156674441586
  0.6826519118844601  0.1204151047709211  0.8072292588591852
  0.9328753333515278  0.4652609442620705  0.7175688430342654
  0.7640092664197495  0.2224768231693088  0.7360642155990139
  0.6921256651464057  0.1894482966298353  0.7597807245716783
  0.5224393233453144  0.4539436185182616  0.7889767983668849
  0.8019684360413153  0.0533728542125344  0.8977868852478971
  0.7994236489072358  0.1559042485510903  0.5630447756572964
  0.9604942257122635  0.4310494862893001  0.5353499142847942
  0.5931363580911621  0.4886874758127172  0.9738988227077819
  0.6788839199224161  0.2126147128367333  0.9725600185363130
  0.2819041045614940  0.0813419597689336  0.6001050439797407
  0.2313036596722339  0.0778438898314812  0.8343655889001099
  0.3739138331181066  0.4401204447876197  0.6840232219989213
  0.3239667220759549  0.2151188409200111  0.7061736091503361
  0.2190173931946248  0.1934744042142744  0.7662754643383886
  0.0340200426864549  0.4163949108036157  0.7910059940124042
  0.3147645487902576  0.0561948669888813  0.8986276488488198
  0.1614686042156141  0.0533417924152171  0.6750219184838351
  0.3498568846061818  0.3920156924297262  0.7640344549235953
  0.4191249311122174  0.1726651930786270  0.7462376444819065
  0.3388295582219802  0.1511640633999774  0.5921448543082739
  0.1762532013748140  0.1455157381564851  0.8570640524286991
  0.3911665568023713  0.0782260826998642  0.9172746532768434
  0.0903389358119218  0.0891342676348001  0.5995078700844717
  0.6834277972100354  0.0300073268287257  0.6871965332554393
  0.1682801779643585  0.1074159533440061  0.7553371748738973
 -0.0041075049694197  0.0223069186930949  0.7584431491368075
  0.2484203856957233  0.2784184517043553  0.7387157220336319
  0.2529292425678649 -0.0021162992707489  0.6269596315430411
  0.2583193189656713 -0.0032020568566441  0.8641147598316314
  0.8213503615472246  0.3859404069611407  0.8167075357064711
  0.7029430056355801  0.4076309807944807  0.5792859739040916
  0.9218049531038871  0.0280305291791070  0.9747618036283079
  0.8136924078977128  0.2920379622862643  0.9708571087719456
  0.2554934419621772  0.7484451807739469  0.2562563883407932
  0.5395657588430026  0.0691085347594832  0.5237153207002098
  0.8514420856577321  0.4544797164366072  0.6498639590379057
  0.6604332960426822  0.4650961286659528  0.9172841593332557
  0.5307708803437827  0.3147103536893407  0.8614788293853799
  0.9694499887253630  0.3182776796914649  0.5891271828009224
  0.3538728080120478  0.0853240828907999  0.4862875613443242
  0.8395096525941255  0.4127841306253709  0.7356248637529439
  0.9058821869770000  0.1760326455817848  0.7367404986316256
  0.8480452913175158  0.1652067995551545  0.6386905997922193
  0.0209718118358435 -0.0024606034274189 -0.0059702654125634
  0.0175284838495717  0.2464182470450200  0.3854714564608842
 -0.0105282472504798  0.2587029421613732  0.1217245462334988
  0.0327916130645377  0.1568057145165635  0.0932924367401250
  0.4606659756512274  0.1765589837456322  0.3260103626037463
  0.1836628887632245  0.2881611996085250  0.2159553308553212
  0.0590194750678935  0.0353171257381746  0.2144388455874832
  0.4485902959530049  0.0789606213964344  0.2974556699315651
  0.2999188582503448  0.3418756175259234  0.2784775106924132
  0.1011091182802907  0.1993520542064263  0.4219992766792025
  0.4450882976196674  0.2065913556916918  0.1692268433955668
  0.3178820953481650  0.1053443669437542  0.0647183984691841
  0.2208766520277224  0.0847004207499511  0.3222712213313257
  0.4264761929701955  0.4610827861615390  0.2114918523086367
  0.2399330669011915  0.2400228500518870 -0.0069107748495509
  0.3268610694662143  0.2080367587719140  0.2049752154612083
  0.0543990819324439  0.3963648839162897  0.2978758118910405
  0.3165618256440818  0.0281345138830441  0.4121461590398240
  0.2068477274814818  0.0006036229482904  0.1730991096924762
  0.3496378645881937  0.4077414990749564  0.2487682380795355
  0.4030135792468204  0.1646691701148153  0.2338772273039122
  0.3552512563625875  0.1650940112663131  0.1459841492864141
  0.1596433210288828  0.1459216195140663  0.3831018830109957
  0.3882054595843601  0.0918616674891170  0.3752681053306799
  0.1146989277395566  0.0826339638872435  0.1372522324760637
  0.1524131597501314  0.0745350411788400  0.2309634308384156
  0.3457569102891169  0.0854499395710871 -0.0070511894542199
 -0.0060436721207947 -0.0071289375093092  0.2402808203546822
  0.2674388315388201  0.2522798869918406  0.2575441751646750
  0.2868680057582350  0.0401617016640896  0.1048620302852933
  0.2113746305567595  0.1733954940993766  0.2840535222768515