LLZO_2
2.0
13.236070 0.000000 0.000000
0.000000 13.236070 0.000000
0.000000 0.000000 12.701706
La Li O Zr
192 448 768 128
direct
0.5 0.0 0.125 La
0.875 0.186315 0.9375 La
0.875 0.436315 0.9375 La
0.813685 0.375 0.5625 La
0.936315 0.125 0.5625 La
0.5 0.25 0.75 La
0.5 0.25 0.5 La
0.75 0.25 0.875 La
0.5 0.0 0.875 La
0.625 0.063685 0.9375 La
0.625 0.313685 0.9375 La
0.563685 0.375 0.5625 La
0.686315 0.125 0.5625 La
0.936315 0.375 0.8125 La
0.625 0.436315 0.6875 La
0.686315 0.375 0.3125 La
0.686315 0.875 0.8125 La
0.563685 0.625 0.8125 La
0.625 0.686315 0.6875 La
0.625 0.936315 0.6875 La
0.686315 0.625 0.5625 La
0.563685 0.875 0.5625 La
0.625 0.813685 0.9375 La
0.625 0.563685 0.9375 La
0.5 0.5 0.875 La
0.75 0.75 0.875 La
0.5 0.75 0.5 La
0.625 0.186315 0.6875 La
0.5 0.75 0.75 La
0.813685 0.125 0.8125 La
0.875 0.313685 0.6875 La
0.0 0.5 0.125 La
0.0 0.0 0.625 La
0.375 0.813685 0.1875 La
0.375 0.563685 0.1875 La
0.313685 0.625 0.3125 La
0.436315 0.875 0.3125 La
0.375 0.686315 0.4375 La
0.375 0.936315 0.4375 La
0.313685 0.875 0.0625 La
0.436315 0.625 0.0625 La
0.0 0.75 0.25 La
0.0 0.75 0.0 La
0.875 0.063685 0.6875 La
0.25 0.75 0.375 La
0.125 0.563685 0.4375 La
0.125 0.813685 0.4375 La
0.063685 0.875 0.0625 La
0.186315 0.625 0.0625 La
0.125 0.936315 0.1875 La
0.125 0.686315 0.1875 La
0.063685 0.625 0.3125 La
0.186315 0.875 0.3125 La
0.75 0.0 0.5 La
0.75 0.0 0.75 La
0.5 0.0 0.625 La
0.75 0.25 0.625 La
0.0 0.5 0.375 La
0.936315 0.625 0.5625 La
0.813685 0.875 0.5625 La
0.875 0.936315 0.9375 La
0.563685 0.625 0.3125 La
0.686315 0.875 0.3125 La
0.686315 0.375 0.8125 La
0.563685 0.125 0.8125 La
0.186315 0.375 0.8125 La
0.063685 0.125 0.8125 La
0.125 0.186315 0.6875 La
0.125 0.436315 0.6875 La
0.186315 0.125 0.5625 La
0.063685 0.375 0.5625 La
0.125 0.313685 0.9375 La
0.125 0.063685 0.9375 La
0.625 0.686315 0.1875 La
0.0 0.0 0.875 La
0.0 0.25 0.5 La
0.0 0.25 0.75 La
0.436315 0.125 0.5625 La
0.313685 0.375 0.5625 La
0.375 0.436315 0.9375 La
0.375 0.186315 0.9375 La
0.436315 0.375 0.8125 La
0.313685 0.125 0.8125 La
0.375 0.063685 0.6875 La
0.375 0.313685 0.6875 La
0.25 0.0 0.5 La
0.25 0.0 0.75 La
0.25 0.25 0.875 La
0.625 0.936315 0.1875 La
0.686315 0.625 0.0625 La
0.563685 0.875 0.0625 La
0.875 0.686315 0.9375 La
0.936315 0.875 0.8125 La
0.813685 0.625 0.8125 La
0.75 0.5 0.5 La
0.75 0.5 0.75 La
0.5 0.5 0.625 La
0.75 0.75 0.625 La
0.875 0.813685 0.6875 La
0.875 0.563685 0.6875 La
0.75 0.5 0.0 La
0.75 0.5 0.25 La
0.5 0.5 0.125 La
0.75 0.75 0.125 La
0.875 0.813685 0.1875 La
0.875 0.563685 0.1875 La
0.813685 0.625 0.3125 La
0.936315 0.875 0.3125 La
0.875 0.686315 0.4375 La
0.875 0.936315 0.4375 La
0.813685 0.875 0.0625 La
0.936315 0.625 0.0625 La
0.5 0.75 0.25 La
0.5 0.75 0.0 La
0.75 0.75 0.375 La
0.5 0.5 0.375 La
0.625 0.563685 0.4375 La
0.625 0.813685 0.4375 La
0.25 0.5 0.25 La
0.25 0.5 0.0 La
0.25 0.75 0.125 La
0.375 0.313685 0.1875 La
0.75 0.0 0.25 La
0.75 0.25 0.125 La
0.25 0.0 0.0 La
0.25 0.0 0.25 La
0.0 0.0 0.125 La
0.25 0.25 0.125 La
0.375 0.063685 0.1875 La
0.313685 0.125 0.3125 La
0.436315 0.375 0.3125 La
0.75 0.0 0.0 La
0.375 0.186315 0.4375 La
0.313685 0.375 0.0625 La
0.436315 0.125 0.0625 La
0.0 0.25 0.25 La
0.0 0.25 0.0 La
0.25 0.25 0.375 La
0.0 0.0 0.375 La
0.125 0.063685 0.4375 La
0.125 0.313685 0.4375 La
0.063685 0.375 0.0625 La
0.375 0.436315 0.4375 La
0.25 0.5 0.5 La
0.25 0.5 0.75 La
0.0 0.5 0.625 La
0.186315 0.875 0.8125 La
0.063685 0.625 0.8125 La
0.125 0.686315 0.6875 La
0.125 0.936315 0.6875 La
0.186315 0.625 0.5625 La
0.063685 0.875 0.5625 La
0.125 0.813685 0.9375 La
0.125 0.563685 0.9375 La
0.0 0.5 0.875 La
0.25 0.75 0.875 La
0.0 0.75 0.5 La
0.0 0.75 0.75 La
0.436315 0.625 0.5625 La
0.313685 0.875 0.5625 La
0.375 0.936315 0.9375 La
0.375 0.686315 0.9375 La
0.436315 0.875 0.8125 La
0.313685 0.625 0.8125 La
0.375 0.563685 0.6875 La
0.375 0.813685 0.6875 La
0.25 0.75 0.625 La
0.186315 0.125 0.0625 La
0.125 0.436315 0.1875 La
0.25 0.25 0.625 La
0.063685 0.125 0.3125 La
0.625 0.186315 0.1875 La
0.563685 0.125 0.3125 La
0.686315 0.125 0.0625 La
0.563685 0.375 0.0625 La
0.625 0.313685 0.4375 La
0.625 0.063685 0.4375 La
0.5 0.0 0.375 La
0.625 0.436315 0.1875 La
0.5 0.25 0.0 La
0.75 0.25 0.375 La
0.936315 0.125 0.0625 La
0.813685 0.375 0.0625 La
0.875 0.436315 0.4375 La
0.875 0.186315 0.4375 La
0.936315 0.375 0.3125 La
0.813685 0.125 0.3125 La
0.875 0.063685 0.1875 La
0.875 0.313685 0.1875 La
0.186315 0.375 0.3125 La
0.5 0.25 0.25 La
0.125 0.186315 0.1875 La
0.331233 0.9597424999999999 0.159572 Li
0.1687675 0.9597424999999999 0.409572 Li
0.040258 0.831233 0.340428 Li
0.4597425 0.831233 0.0904285 Li
0.081233 0.7902575000000001 0.159572 Li
0.081233 0.9597424999999999 0.465428 Li
0.4597425 0.918767 0.0345715 Li
0.2902575 0.6687675 0.0345715 Li
0.040258 0.581233 0.0345715 Li
0.1687675 0.709742 0.465428 Li
0.209742 0.831233 0.0345715 Li
0.1687675 0.540258 0.159572 Li
0.418767 0.540258 0.465428 Li
0.1593945 0.5906055 0.25 Li
0.0906055 0.5906055 0.125 Li
0.4093945 0.5906055 0.375 Li
0.1593945 0.6593945 0.375 Li
0.3406055 0.6593945 0.125 Li
0.4093945 0.6593945 0.25 Li
0.331233 0.7902575000000001 0.465428 Li
0.3406055 0.9093945 0.25 Li
0.331233 0.540258 0.409572 Li
0.040258 0.918767 0.284572 Li
0.209742 0.6687675 0.284572 Li
0.331233 0.709742 0.215428 Li
0.418767 0.9597424999999999 0.215428 Li
0.209742 0.581233 0.340428 Li
0.418767 0.7902575000000001 0.409572 Li
0.0906055 0.6593945 0.0 Li
0.418767 0.709742 0.159572 Li
0.0906055 0.9093945 0.375 Li
0.209742 0.918767 0.0904285 Li
0.581233 0.040258 0.215428 Li
0.6687675 0.2902575 0.215428 Li
0.9597424999999999 0.1687675 0.340428 Li
0.9597424999999999 0.081233 0.284572 Li
0.7902575000000001 0.331233 0.284572 Li
0.581233 0.209742 0.409572 Li
0.918767 0.209742 0.159572 Li
0.0906055 0.8406055 0.25 Li
0.540258 0.1687675 0.0904285 Li
0.5 0.25 0.125 Li
0.25 0.75 0.0 Li
0.0 0.5 0.0 Li
0.0 0.75 0.375 Li
0.0 0.75 0.125 Li
0.040258 0.6687675 0.0904285 Li
0.4597425 0.6687675 0.340428 Li
0.1687675 0.7902575000000001 0.215428 Li
0.081233 0.540258 0.215428 Li
0.4597425 0.581233 0.284572 Li
0.2902575 0.831233 0.284572 Li
0.081233 0.709742 0.409572 Li
0.2902575 0.581233 0.0904285 Li
0.4093945 0.8406055 0.0 Li
0.3406055 0.8406055 0.375 Li
0.1593945 0.8406055 0.125 Li
0.4093945 0.9093945 0.125 Li
0.1593945 0.9093945 0.0 Li
0.2902575 0.918767 0.340428 Li
0.9597424999999999 0.831233 0.0904285 Li
0.709742 0.081233 0.340428 Li
0.1593945 0.8406055 0.625 Li
0.3406055 0.8406055 0.875 Li
0.4093945 0.8406055 0.5 Li
0.0906055 0.8406055 0.75 Li
0.25 0.75 0.5 Li
0.0 0.5 0.5 Li
0.0 0.75 0.875 Li
0.0 0.75 0.625 Li
0.040258 0.6687675 0.5904285 Li
0.4597425 0.6687675 0.840428 Li
0.1687675 0.7902575000000001 0.715428 Li
0.081233 0.540258 0.715428 Li
0.4597425 0.581233 0.784572 Li
0.2902575 0.831233 0.784572 Li
0.081233 0.709742 0.909572 Li
0.418767 0.709742 0.659572 Li
0.2902575 0.581233 0.5904285 Li
0.209742 0.581233 0.840428 Li
0.418767 0.9597424999999999 0.715428 Li
0.331233 0.709742 0.715428 Li
0.209742 0.6687675 0.784572 Li
0.040258 0.918767 0.784572 Li
0.331233 0.540258 0.909572 Li
0.1687675 0.540258 0.659572 Li
0.3406055 0.9093945 0.75 Li
0.4093945 0.6593945 0.75 Li
0.3406055 0.6593945 0.625 Li
0.1593945 0.6593945 0.875 Li
0.4093945 0.5906055 0.875 Li
0.4093945 0.9093945 0.625 Li
0.0906055 0.9093945 0.875 Li
0.1593945 0.9093945 0.5 Li
0.0906055 0.6593945 0.5 Li
0.75 0.5 0.375 Li
0.75 0.5 0.125 Li
0.75 0.75 0.25 Li
0.5 0.5 0.25 Li
0.8406055 0.5906055 0.0 Li
0.6593945 0.5906055 0.25 Li
0.5906055 0.5906055 0.125 Li
0.9093945 0.5906055 0.375 Li
0.6593945 0.6593945 0.375 Li
0.8406055 0.6593945 0.125 Li
0.9093945 0.6593945 0.25 Li
0.8406055 0.9093945 0.25 Li
0.6687675 0.540258 0.159572 Li
0.831233 0.540258 0.409572 Li
0.0906055 0.5906055 0.625 Li
0.2902575 0.918767 0.840428 Li
0.418767 0.540258 0.965428 Li
0.331233 0.7902575000000001 0.965428 Li
0.209742 0.831233 0.5345715 Li
0.040258 0.581233 0.5345715 Li
0.331233 0.9597424999999999 0.659572 Li
0.1687675 0.9597424999999999 0.909572 Li
0.040258 0.831233 0.840428 Li
0.4597425 0.831233 0.5904285 Li
0.1687675 0.709742 0.965428 Li
0.081233 0.9597424999999999 0.965428 Li
0.4597425 0.918767 0.5345715 Li
0.2902575 0.6687675 0.5345715 Li
0.081233 0.7902575000000001 0.659572 Li
0.418767 0.7902575000000001 0.909572 Li
0.209742 0.918767 0.5904285 Li
0.7902575000000001 0.081233 0.0904285 Li
0.1593945 0.5906055 0.75 Li
0.0 0.5 0.75 Li
0.6687675 0.709742 0.465428 Li
0.3406055 0.5906055 0.0 Li
0.540258 0.831233 0.340428 Li
0.6687675 0.9597424999999999 0.409572 Li
0.831233 0.9597424999999999 0.159572 Li
0.540258 0.581233 0.0345715 Li
0.709742 0.831233 0.0345715 Li
0.831233 0.7902575000000001 0.465428 Li
0.918767 0.540258 0.465428 Li
0.709742 0.918767 0.0904285 Li
0.7902575000000001 0.918767 0.340428 Li
0.75 0.0 0.375 Li
0.75 0.0 0.125 Li
0.75 0.25 0.25 Li
0.5 0.0 0.25 Li
0.8406055 0.0906055 0.0 Li
0.6593945 0.0906055 0.25 Li
0.5906055 0.0906055 0.125 Li
0.9093945 0.0906055 0.375 Li
0.6593945 0.1593945 0.375 Li
0.8406055 0.1593945 0.125 Li
0.9093945 0.1593945 0.25 Li
0.8406055 0.4093945 0.25 Li
0.6687675 0.040258 0.159572 Li
0.831233 0.040258 0.409572 Li
0.540258 0.418767 0.284572 Li
0.709742 0.1687675 0.284572 Li
0.831233 0.209742 0.215428 Li
0.918767 0.4597425 0.215428 Li
0.581233 0.9597424999999999 0.465428 Li
0.9597424999999999 0.918767 0.0345715 Li
0.7902575000000001 0.6687675 0.0345715 Li
0.581233 0.7902575000000001 0.159572 Li
0.25 0.75 0.75 Li
0.25 0.5 0.625 Li
0.25 0.5 0.875 Li
0.540258 0.918767 0.284572 Li
0.709742 0.6687675 0.284572 Li
0.831233 0.709742 0.215428 Li
0.918767 0.9597424999999999 0.215428 Li
0.709742 0.581233 0.340428 Li
0.7902575000000001 0.581233 0.0904285 Li
0.918767 0.709742 0.159572 Li
0.581233 0.709742 0.409572 Li
0.7902575000000001 0.831233 0.284572 Li
0.9597424999999999 0.581233 0.284572 Li
0.581233 0.540258 0.215428 Li
0.3406055 0.5906055 0.5 Li
0.6687675 0.7902575000000001 0.215428 Li
0.540258 0.6687675 0.0904285 Li
0.5 0.75 0.125 Li
0.5 0.75 0.375 Li
0.5 0.5 0.0 Li
0.75 0.75 0.0 Li
0.5906055 0.8406055 0.25 Li
0.9093945 0.8406055 0.0 Li
0.8406055 0.8406055 0.375 Li
0.6593945 0.8406055 0.125 Li
0.9093945 0.9093945 0.125 Li
0.5906055 0.9093945 0.375 Li
0.6593945 0.9093945 0.0 Li
0.5906055 0.6593945 0.0 Li
0.918767 0.7902575000000001 0.409572 Li
0.9597424999999999 0.6687675 0.340428 Li
0.0 0.5 0.25 Li
0.25 0.0 0.375 Li
0.25 0.5 0.125 Li
0.581233 0.2902575 0.659572 Li
0.918767 0.2902575 0.909572 Li
0.5906055 0.1593945 0.5 Li
0.6593945 0.4093945 0.5 Li
0.5906055 0.4093945 0.875 Li
0.9093945 0.4093945 0.625 Li
0.6593945 0.3406055 0.625 Li
0.8406055 0.3406055 0.875 Li
0.9093945 0.3406055 0.5 Li
0.5906055 0.3406055 0.75 Li
0.75 0.25 0.5 Li
0.5 0.0 0.5 Li
0.5 0.25 0.875 Li
0.5 0.25 0.625 Li
0.540258 0.1687675 0.5904285 Li
0.9597424999999999 0.1687675 0.840428 Li
0.6687675 0.2902575 0.715428 Li
0.581233 0.040258 0.715428 Li
0.9597424999999999 0.081233 0.784572 Li
0.7902575000000001 0.331233 0.784572 Li
0.581233 0.209742 0.909572 Li
0.918767 0.209742 0.659572 Li
0.7902575000000001 0.081233 0.5904285 Li
0.709742 0.081233 0.840428 Li
0.918767 0.4597425 0.715428 Li
0.831233 0.209742 0.715428 Li
0.709742 0.1687675 0.784572 Li
0.540258 0.418767 0.784572 Li
0.831233 0.040258 0.909572 Li
0.7902575000000001 0.1687675 0.5345715 Li
0.9597424999999999 0.418767 0.5345715 Li
0.581233 0.4597425 0.965428 Li
0.6687675 0.209742 0.965428 Li
0.2902575 0.081233 0.5904285 Li
0.209742 0.081233 0.840428 Li
0.418767 0.4597425 0.715428 Li
0.331233 0.209742 0.715428 Li
0.209742 0.1687675 0.784572 Li
0.040258 0.418767 0.784572 Li
0.331233 0.040258 0.909572 Li
0.1687675 0.040258 0.659572 Li
0.3406055 0.4093945 0.75 Li
0.4093945 0.1593945 0.75 Li
0.3406055 0.1593945 0.625 Li
0.1593945 0.1593945 0.875 Li
0.4093945 0.0906055 0.875 Li
0.0906055 0.0906055 0.625 Li
0.6687675 0.040258 0.659572 Li
0.1593945 0.0906055 0.75 Li
0.0 0.0 0.75 Li
0.25 0.25 0.75 Li
0.25 0.0 0.625 Li
0.25 0.0 0.875 Li
0.7902575000000001 0.418767 0.840428 Li
0.709742 0.418767 0.5904285 Li
0.918767 0.040258 0.965428 Li
0.831233 0.2902575 0.965428 Li
0.25 0.75 0.25 Li
0.540258 0.081233 0.5345715 Li
0.831233 0.4597425 0.659572 Li
0.6687675 0.4597425 0.909572 Li
0.540258 0.331233 0.840428 Li
0.9597424999999999 0.331233 0.5904285 Li
0.3406055 0.0906055 0.5 Li
0.8406055 0.4093945 0.75 Li
0.9093945 0.1593945 0.75 Li
0.8406055 0.1593945 0.625 Li
0.0 0.0 0.0 Li
0.0 0.25 0.375 Li
0.0 0.25 0.125 Li
0.040258 0.1687675 0.0904285 Li
0.4597425 0.1687675 0.340428 Li
0.1687675 0.2902575 0.215428 Li
0.081233 0.040258 0.215428 Li
0.4597425 0.081233 0.284572 Li
0.2902575 0.331233 0.284572 Li
0.081233 0.209742 0.409572 Li
0.418767 0.209742 0.159572 Li
0.2902575 0.081233 0.0904285 Li
0.209742 0.081233 0.340428 Li
0.418767 0.4597425 0.215428 Li
0.25 0.25 0.0 Li
0.331233 0.209742 0.215428 Li
0.040258 0.418767 0.284572 Li
0.331233 0.040258 0.409572 Li
0.1687675 0.040258 0.159572 Li
0.3406055 0.4093945 0.25 Li
0.4093945 0.1593945 0.25 Li
0.3406055 0.1593945 0.125 Li
0.1593945 0.1593945 0.375 Li
0.4093945 0.0906055 0.375 Li
0.0906055 0.0906055 0.125 Li
0.1593945 0.0906055 0.25 Li
0.3406055 0.0906055 0.0 Li
0.0 0.0 0.25 Li
0.25 0.25 0.25 Li
0.25 0.0 0.125 Li
0.209742 0.1687675 0.284572 Li
0.418767 0.209742 0.659572 Li
0.0906055 0.3406055 0.25 Li
0.3406055 0.3406055 0.375 Li
0.6593945 0.1593945 0.875 Li
0.9093945 0.0906055 0.875 Li
0.5906055 0.0906055 0.625 Li
0.6593945 0.0906055 0.75 Li
0.8406055 0.0906055 0.5 Li
0.5 0.0 0.75 Li
0.75 0.25 0.75 Li
0.75 0.0 0.625 Li
0.75 0.0 0.875 Li
0.2902575 0.418767 0.340428 Li
0.209742 0.418767 0.0904285 Li
0.418767 0.040258 0.465428 Li
0.331233 0.2902575 0.465428 Li
0.209742 0.331233 0.0345715 Li
0.4093945 0.3406055 0.0 Li
0.040258 0.081233 0.0345715 Li
0.1687675 0.4597425 0.409572 Li
0.040258 0.331233 0.340428 Li
0.4597425 0.331233 0.0904285 Li
0.1687675 0.209742 0.465428 Li
0.081233 0.4597425 0.465428 Li
0.4597425 0.418767 0.0345715 Li
0.2902575 0.1687675 0.0345715 Li
0.081233 0.2902575 0.159572 Li
0.418767 0.2902575 0.409572 Li
0.0906055 0.1593945 0.0 Li
0.1593945 0.4093945 0.0 Li
0.0906055 0.4093945 0.375 Li
0.4093945 0.4093945 0.125 Li
0.1593945 0.3406055 0.125 Li
0.331233 0.4597425 0.159572 Li
0.081233 0.209742 0.909572 Li
0.709742 0.331233 0.5345715 Li
0.4597425 0.081233 0.784572 Li
0.5906055 0.5906055 0.625 Li
0.9093945 0.5906055 0.875 Li
0.6593945 0.6593945 0.875 Li
0.8406055 0.6593945 0.625 Li
0.9093945 0.6593945 0.75 Li
0.8406055 0.9093945 0.75 Li
0.6687675 0.540258 0.659572 Li
0.831233 0.540258 0.909572 Li
0.540258 0.918767 0.784572 Li
0.709742 0.6687675 0.784572 Li
0.831233 0.709742 0.715428 Li
0.918767 0.9597424999999999 0.715428 Li
0.709742 0.581233 0.840428 Li
0.7902575000000001 0.581233 0.5904285 Li
0.918767 0.709742 0.659572 Li
0.581233 0.709742 0.909572 Li
0.7902575000000001 0.831233 0.784572 Li
0.9597424999999999 0.581233 0.784572 Li
0.581233 0.540258 0.715428 Li
0.2902575 0.331233 0.784572 Li
0.9597424999999999 0.6687675 0.840428 Li
0.540258 0.6687675 0.5904285 Li
0.5 0.75 0.625 Li
0.5 0.75 0.875 Li
0.5 0.5 0.5 Li
0.75 0.75 0.5 Li
0.5906055 0.8406055 0.75 Li
0.9093945 0.8406055 0.5 Li
0.8406055 0.8406055 0.875 Li
0.6593945 0.5906055 0.75 Li
0.8406055 0.5906055 0.5 Li
0.5 0.5 0.75 Li
0.75 0.75 0.75 Li
0.25 0.5 0.375 Li
0.5 0.25 0.375 Li
0.5 0.0 0.0 Li
0.75 0.25 0.0 Li
0.5906055 0.3406055 0.25 Li
0.9093945 0.3406055 0.0 Li
0.8406055 0.3406055 0.375 Li
0.6593945 0.3406055 0.125 Li
0.9093945 0.4093945 0.125 Li
0.5906055 0.4093945 0.375 Li
0.6593945 0.4093945 0.0 Li
0.5906055 0.1593945 0.0 Li
0.918767 0.2902575 0.409572 Li
0.581233 0.2902575 0.159572 Li
0.6593945 0.8406055 0.625 Li
0.7902575000000001 0.1687675 0.0345715 Li
0.581233 0.4597425 0.465428 Li
0.6687675 0.209742 0.465428 Li
0.9597424999999999 0.331233 0.0904285 Li
0.540258 0.331233 0.340428 Li
0.6687675 0.4597425 0.409572 Li
0.831233 0.4597425 0.159572 Li
0.540258 0.081233 0.0345715 Li
0.709742 0.331233 0.0345715 Li
0.831233 0.2902575 0.465428 Li
0.918767 0.040258 0.465428 Li
0.709742 0.418767 0.0904285 Li
0.7902575000000001 0.418767 0.340428 Li
0.75 0.5 0.875 Li
0.75 0.5 0.625 Li
0.9597424999999999 0.418767 0.0345715 Li
0.9093945 0.9093945 0.625 Li
0.6687675 0.7902575000000001 0.715428 Li
0.6593945 0.9093945 0.5 Li
0.418767 0.040258 0.965428 Li
0.331233 0.2902575 0.965428 Li
0.209742 0.331233 0.5345715 Li
0.040258 0.081233 0.5345715 Li
0.331233 0.4597425 0.659572 Li
0.1687675 0.4597425 0.909572 Li
0.040258 0.331233 0.840428 Li
0.1687675 0.209742 0.965428 Li
0.081233 0.4597425 0.965428 Li
0.4597425 0.418767 0.5345715 Li
0.2902575 0.1687675 0.5345715 Li
0.081233 0.2902575 0.659572 Li
0.418767 0.2902575 0.909572 Li
0.0906055 0.1593945 0.5 Li
0.209742 0.418767 0.5904285 Li
0.1593945 0.4093945 0.5 Li
0.4093945 0.4093945 0.625 Li
0.1593945 0.3406055 0.625 Li
0.3406055 0.3406055 0.875 Li
0.5906055 0.9093945 0.875 Li
0.4093945 0.3406055 0.5 Li
0.0906055 0.3406055 0.75 Li
0.25 0.25 0.5 Li
0.0 0.0 0.5 Li
0.0 0.25 0.875 Li
0.0 0.25 0.625 Li
0.040258 0.1687675 0.5904285 Li
0.4597425 0.1687675 0.840428 Li
0.1687675 0.2902575 0.715428 Li
0.081233 0.040258 0.715428 Li
0.0906055 0.4093945 0.875 Li
0.2902575 0.418767 0.840428 Li
0.4597425 0.331233 0.5904285 Li
0.709742 0.918767 0.5904285 Li
0.7902575000000001 0.918767 0.840428 Li
0.6687675 0.9597424999999999 0.909572 Li
0.540258 0.831233 0.840428 Li
0.9597424999999999 0.831233 0.5904285 Li
0.6687675 0.709742 0.965428 Li
0.9597424999999999 0.918767 0.5345715 Li
0.7902575000000001 0.6687675 0.5345715 Li
0.581233 0.7902575000000001 0.659572 Li
0.581233 0.9597424999999999 0.965428 Li
0.5906055 0.6593945 0.5 Li
0.918767 0.540258 0.965428 Li
0.831233 0.9597424999999999 0.659572 Li
0.540258 0.581233 0.5345715 Li
0.709742 0.831233 0.5345715 Li
0.831233 0.7902575000000001 0.965428 Li
0.918767 0.7902575000000001 0.909572 Li
0.8012215 0.0274815 0.8296665 O
0.9487785 0.2774815 0.8296665 O
0.7225185000000001 0.4487785 0.6703335 O
0.5274815 0.1987785 0.6703335 O
0.5274815 0.4487785 0.7046665 O
0.8012215 0.2225185 0.7953335 O
0.9725185000000001 0.0512215 0.7046665 O
0.5512215 0.2225185 0.8296665 O
0.7225185000000001 0.1987785 0.7046665 O
0.9487785 0.4725185 0.7953335 O
0.7774814999999999 0.3012215 0.7046665 O
0.8616135 0.0754115 0.589382 O
0.8472585 0.267308 0.8893519999999999 O
0.9245885 0.3616135 0.9106179999999999 O
0.8254115 0.1116135 0.9106179999999999 O
0.9487785 0.2225185 0.5796665 O
0.8883865 0.1745885 0.8393820000000001 O
0.8616135 0.4245885 0.8393820000000001 O
0.5754115 0.1116135 0.714382 O
0.6745885 0.3616135 0.714382 O
0.8616135 0.3254115 0.7856179999999999 O
0.8883865 0.0754115 0.7856179999999999 O
0.9245885 0.1383865 0.660618 O
0.8254115 0.3883865 0.660618 O
0.6527415 0.482692 0.9856480000000001 O
0.6383865 0.1745885 0.7856179999999999 O
0.5972585 0.232692 0.9856480000000001 O
0.982692 0.4027415 0.610648 O
0.517308 0.4027415 0.8606480000000001 O
0.8616135 0.1745885 0.535618 O
0.6745885 0.1383865 0.9643820000000001 O
0.8254115 0.1383865 0.714382 O
0.8883865 0.3254115 0.589382 O
0.7225185000000001 0.0512215 0.9203335 O
0.5972585 0.017308 0.639352 O
0.6987785 0.2774815 0.7953335 O
0.5754115 0.3883865 0.464382 O
0.9245885 0.3883865 0.214382 O
0.6116135 0.4245885 0.285618 O
0.8883865 0.4245885 0.035618 O
0.6745885 0.1116135 0.160618 O
0.5754115 0.3616135 0.160618 O
0.6116135 0.3254115 0.339382 O
0.6383865 0.4245885 0.089382 O
0.8254115 0.3616135 0.464382 O
0.9245885 0.1116135 0.464382 O
0.6116135 0.0754115 0.035618 O
0.6383865 0.3254115 0.035618 O
0.6745885 0.3883865 0.410618 O
0.5754115 0.1383865 0.410618 O
0.6116135 0.1745885 0.089382 O
0.7774814999999999 0.0512215 0.6703335 O
0.6527415 0.267308 0.639352 O
0.8472585 0.482692 0.735648 O
0.5512215 0.0274815 0.7953335 O
0.982692 0.1527415 0.7643519999999999 O
0.517308 0.1527415 0.514352 O
0.6527415 0.232692 0.8893519999999999 O
0.8472585 0.232692 0.639352 O
0.517308 0.0972585 0.610648 O
0.9027415 0.232692 0.735648 O
0.982692 0.0972585 0.8606480000000001 O
0.9027415 0.267308 0.9856480000000001 O
0.732692 0.0972585 0.7643519999999999 O
0.767308 0.0972585 0.514352 O
0.9027415 0.017308 0.8893519999999999 O
0.767308 0.1527415 0.610648 O
0.732692 0.1527415 0.8606480000000001 O
0.8472585 0.017308 0.9856480000000001 O
0.517308 0.3472585 0.7643519999999999 O
0.9245885 0.8616135 0.410618 O
0.6527415 0.017308 0.735648 O
0.517308 0.5972585 0.610648 O
0.8472585 0.732692 0.639352 O
0.6527415 0.732692 0.8893519999999999 O
0.517308 0.6527415 0.514352 O
0.982692 0.6527415 0.7643519999999999 O
0.5512215 0.5274815 0.7953335 O
0.6987785 0.7774814999999999 0.7953335 O
0.7774814999999999 0.5512215 0.6703335 O
0.7225185000000001 0.5512215 0.9203335 O
0.9487785 0.7225185000000001 0.5796665 O
0.5512215 0.7225185000000001 0.8296665 O
0.7225185000000001 0.6987785 0.7046665 O
0.5274815 0.9487785 0.7046665 O
0.8012215 0.7225185000000001 0.7953335 O
0.9487785 0.9725185000000001 0.7953335 O
0.5274815 0.6987785 0.6703335 O
0.7225185000000001 0.9487785 0.6703335 O
0.9487785 0.7774814999999999 0.8296665 O
0.8012215 0.5274815 0.8296665 O
0.9725185000000001 0.5512215 0.7046665 O
0.7774814999999999 0.8012215 0.7046665 O
0.8883865 0.8254115 0.589382 O
0.8616135 0.5754115 0.589382 O
0.8254115 0.6383865 0.714382 O
0.6745885 0.6383865 0.9643820000000001 O
0.982692 0.5972585 0.8606480000000001 O
0.8616135 0.6745885 0.535618 O
0.8472585 0.517308 0.9856480000000001 O
0.732692 0.5972585 0.7643519999999999 O
0.7225185000000001 0.8012215 0.4546665 O
0.5274815 0.5512215 0.4546665 O
0.6383865 0.5754115 0.339382 O
0.6116135 0.8254115 0.339382 O
0.5754115 0.8883865 0.464382 O
0.9245885 0.8883865 0.214382 O
0.6116135 0.9245885 0.285618 O
0.8883865 0.9245885 0.035618 O
0.6745885 0.6116135 0.160618 O
0.5754115 0.8616135 0.160618 O
0.6383865 0.9245885 0.089382 O
0.6116135 0.6745885 0.089382 O
0.8254115 0.8616135 0.464382 O
0.9245885 0.6116135 0.464382 O
0.6116135 0.5754115 0.035618 O
0.6383865 0.8254115 0.035618 O
0.6745885 0.8883865 0.410618 O
0.5754115 0.6383865 0.410618 O
0.9027415 0.732692 0.735648 O
0.8472585 0.982692 0.735648 O
0.732692 0.6527415 0.8606480000000001 O
0.767308 0.6527415 0.610648 O
0.5972585 0.517308 0.639352 O
0.9027415 0.517308 0.8893519999999999 O
0.767308 0.5972585 0.514352 O
0.9027415 0.767308 0.9856480000000001 O
0.5512215 0.7774814999999999 0.0796665 O
0.6383865 0.6745885 0.7856179999999999 O
0.8254115 0.6116135 0.9106179999999999 O
0.8012215 0.9725185000000001 0.5796665 O
0.9725185000000001 0.9487785 0.9546665 O
0.7774814999999999 0.6987785 0.9546665 O
0.5512215 0.9725185000000001 0.5453335 O
0.6987785 0.7225185000000001 0.5453335 O
0.7774814999999999 0.9487785 0.9203335 O
0.9725185000000001 0.6987785 0.9203335 O
0.6987785 0.5274815 0.5796665 O
0.5512215 0.7774814999999999 0.5796665 O
0.7225185000000001 0.8012215 0.9546665 O
0.5274815 0.5512215 0.9546665 O
0.6383865 0.5754115 0.8393820000000001 O
0.6116135 0.8254115 0.8393820000000001 O
0.5754115 0.8883865 0.9643820000000001 O
0.9245885 0.8883865 0.714382 O
0.6116135 0.9245885 0.7856179999999999 O
0.8883865 0.9245885 0.535618 O
0.6745885 0.6116135 0.660618 O
0.5754115 0.8616135 0.660618 O
0.6383865 0.9245885 0.589382 O
0.6116135 0.6745885 0.589382 O
0.8254115 0.8616135 0.9643820000000001 O
0.9245885 0.6116135 0.9643820000000001 O
0.6116135 0.5754115 0.535618 O
0.6383865 0.8254115 0.535618 O
0.6987785 0.9725185000000001 0.8296665 O
0.9245885 0.8616135 0.9106179999999999 O
0.9725185000000001 0.8012215 0.6703335 O
0.9487785 0.5274815 0.5453335 O
0.8883865 0.6745885 0.8393820000000001 O
0.8616135 0.9245885 0.8393820000000001 O
0.5754115 0.6116135 0.714382 O
0.6745885 0.8616135 0.714382 O
0.8616135 0.8254115 0.7856179999999999 O
0.8883865 0.5754115 0.7856179999999999 O
0.9245885 0.6383865 0.660618 O
0.8254115 0.8883865 0.660618 O
0.6527415 0.982692 0.9856480000000001 O
0.5972585 0.732692 0.9856480000000001 O
0.982692 0.9027415 0.610648 O
0.517308 0.9027415 0.8606480000000001 O
0.8472585 0.767308 0.8893519999999999 O
0.6527415 0.767308 0.639352 O
0.517308 0.8472585 0.7643519999999999 O
0.982692 0.8472585 0.514352 O
0.6527415 0.517308 0.735648 O
0.5972585 0.767308 0.735648 O
0.732692 0.8472585 0.610648 O
0.767308 0.8472585 0.8606480000000001 O
0.5972585 0.982692 0.8893519999999999 O
0.9027415 0.982692 0.639352 O
0.767308 0.9027415 0.7643519999999999 O
0.732692 0.9027415 0.514352 O
0.8012215 0.7774814999999999 0.5453335 O
0.5274815 0.8012215 0.9203335 O
0.6987785 0.5274815 0.0796665 O
0.9725185000000001 0.6987785 0.4203335 O
0.7774814999999999 0.9487785 0.4203335 O
0.6745885 0.1116135 0.660618 O
0.5754115 0.3616135 0.660618 O
0.6383865 0.4245885 0.589382 O
0.6116135 0.1745885 0.589382 O
0.8254115 0.3616135 0.9643820000000001 O
0.9245885 0.1116135 0.9643820000000001 O
0.6116135 0.0754115 0.535618 O
0.6383865 0.3254115 0.535618 O
0.6745885 0.3883865 0.9106179999999999 O
0.5754115 0.1383865 0.9106179999999999 O
0.9027415 0.732692 0.235648 O
0.8472585 0.982692 0.235648 O
0.732692 0.6527415 0.360648 O
0.767308 0.6527415 0.110648 O
0.5972585 0.517308 0.139352 O
0.9027415 0.517308 0.389352 O
0.767308 0.5972585 0.014352 O
0.732692 0.5972585 0.264352 O
0.9027415 0.767308 0.485648 O
0.8472585 0.517308 0.485648 O
0.982692 0.5972585 0.360648 O
0.517308 0.5972585 0.110648 O
0.8472585 0.732692 0.139352 O
0.6527415 0.732692 0.389352 O
0.517308 0.6527415 0.014352 O
0.8883865 0.4245885 0.535618 O
0.982692 0.6527415 0.264352 O
0.6116135 0.4245885 0.7856179999999999 O
0.5754115 0.3883865 0.9643820000000001 O
0.5972585 0.267308 0.735648 O
0.732692 0.3472585 0.610648 O
0.767308 0.3472585 0.8606480000000001 O
0.5972585 0.482692 0.8893519999999999 O
0.9027415 0.482692 0.639352 O
0.767308 0.4027415 0.7643519999999999 O
0.732692 0.4027415 0.514352 O
0.8012215 0.2774815 0.5453335 O
0.9487785 0.0274815 0.5453335 O
0.5274815 0.3012215 0.9203335 O
0.9725185000000001 0.3012215 0.6703335 O
0.6987785 0.4725185 0.8296665 O
0.8012215 0.4725185 0.5796665 O
0.9725185000000001 0.4487785 0.9546665 O
0.7774814999999999 0.1987785 0.9546665 O
0.5512215 0.4725185 0.5453335 O
0.6987785 0.2225185 0.5453335 O
0.7774814999999999 0.4487785 0.9203335 O
0.9725185000000001 0.1987785 0.9203335 O
0.6987785 0.0274815 0.5796665 O
0.5512215 0.2774815 0.5796665 O
0.7225185000000001 0.3012215 0.9546665 O
0.5274815 0.0512215 0.9546665 O
0.6383865 0.0754115 0.8393820000000001 O
0.6116135 0.3254115 0.8393820000000001 O
0.9245885 0.3883865 0.714382 O
0.5512215 0.5274815 0.2953335 O
0.6987785 0.7774814999999999 0.2953335 O
0.7774814999999999 0.5512215 0.1703335 O
0.5972585 0.732692 0.485648 O
0.982692 0.9027415 0.110648 O
0.517308 0.9027415 0.360648 O
0.8472585 0.767308 0.389352 O
0.6527415 0.767308 0.139352 O
0.517308 0.8472585 0.264352 O
0.982692 0.8472585 0.014352 O
0.6527415 0.517308 0.235648 O
0.5972585 0.767308 0.235648 O
0.732692 0.8472585 0.110648 O
0.767308 0.8472585 0.360648 O
0.5972585 0.982692 0.389352 O
0.9027415 0.982692 0.139352 O
0.767308 0.9027415 0.264352 O
0.732692 0.9027415 0.014352 O
0.8012215 0.7774814999999999 0.0453335 O
0.9487785 0.5274815 0.0453335 O
0.5274815 0.8012215 0.4203335 O
0.9725185000000001 0.8012215 0.1703335 O
0.6987785 0.9725185000000001 0.3296665 O
0.8012215 0.9725185000000001 0.0796665 O
0.9725185000000001 0.9487785 0.4546665 O
0.7774814999999999 0.6987785 0.4546665 O
0.5512215 0.9725185000000001 0.0453335 O
0.6987785 0.7225185000000001 0.0453335 O
0.6527415 0.982692 0.485648 O
0.8254115 0.8883865 0.160618 O
0.9245885 0.6383865 0.160618 O
0.8883865 0.5754115 0.285618 O
0.7225185000000001 0.5512215 0.4203335 O
0.9487785 0.7225185000000001 0.0796665 O
0.5512215 0.7225185000000001 0.3296665 O
0.7225185000000001 0.6987785 0.2046665 O
0.5274815 0.9487785 0.2046665 O
0.8012215 0.7225185000000001 0.2953335 O
0.9487785 0.9725185000000001 0.2953335 O
0.5274815 0.6987785 0.1703335 O
0.7225185000000001 0.9487785 0.1703335 O
0.9487785 0.7774814999999999 0.3296665 O
0.8012215 0.5274815 0.3296665 O
0.9725185000000001 0.5512215 0.2046665 O
0.982692 0.3472585 0.514352 O
0.7774814999999999 0.8012215 0.2046665 O
0.8616135 0.5754115 0.089382 O
0.8254115 0.6383865 0.214382 O
0.6745885 0.6383865 0.464382 O
0.8616135 0.6745885 0.035618 O
0.6383865 0.6745885 0.285618 O
0.6383865 0.0754115 0.339382 O
0.8254115 0.6116135 0.410618 O
0.8883865 0.6745885 0.339382 O
0.8616135 0.9245885 0.339382 O
0.5754115 0.6116135 0.214382 O
0.6745885 0.8616135 0.214382 O
0.8616135 0.8254115 0.285618 O
0.8883865 0.8254115 0.089382 O
0.5274815 0.0512215 0.4546665 O
0.0754115 0.6383865 0.9106179999999999 O
0.5512215 0.2774815 0.0796665 O
0.4487785 0.0274815 0.5453335 O
0.0274815 0.3012215 0.9203335 O
0.4725185 0.3012215 0.6703335 O
0.1987785 0.4725185 0.8296665 O
0.3012215 0.4725185 0.5796665 O
0.4725185 0.4487785 0.9546665 O
0.2774815 0.1987785 0.9546665 O
0.0512215 0.4725185 0.5453335 O
0.1987785 0.2225185 0.5453335 O
0.2774815 0.4487785 0.9203335 O
0.4725185 0.1987785 0.9203335 O
0.1987785 0.0274815 0.5796665 O
0.0512215 0.2774815 0.5796665 O
0.3012215 0.2774815 0.5453335 O
0.2225185 0.3012215 0.9546665 O
0.1383865 0.0754115 0.8393820000000001 O
0.1116135 0.3254115 0.8393820000000001 O
0.0754115 0.3883865 0.9643820000000001 O
0.4245885 0.3883865 0.714382 O
0.1116135 0.4245885 0.7856179999999999 O
0.3883865 0.4245885 0.535618 O
0.1745885 0.1116135 0.660618 O
0.0754115 0.3616135 0.660618 O
0.1383865 0.4245885 0.589382 O
0.1116135 0.1745885 0.589382 O
0.3254115 0.3616135 0.9643820000000001 O
0.4245885 0.1116135 0.9643820000000001 O
0.1116135 0.0754115 0.535618 O
0.0274815 0.0512215 0.9546665 O
0.1383865 0.3254115 0.535618 O
0.232692 0.4027415 0.514352 O
0.4027415 0.482692 0.639352 O
0.3616135 0.0754115 0.589382 O
0.3254115 0.1383865 0.714382 O
0.1745885 0.1383865 0.9643820000000001 O
0.3616135 0.1745885 0.535618 O
0.1383865 0.1745885 0.7856179999999999 O
0.4245885 0.3616135 0.9106179999999999 O
0.3254115 0.1116135 0.9106179999999999 O
0.3883865 0.1745885 0.8393820000000001 O
0.3616135 0.4245885 0.8393820000000001 O
0.0754115 0.1116135 0.714382 O
0.1745885 0.3616135 0.714382 O
0.3616135 0.3254115 0.7856179999999999 O
0.3883865 0.0754115 0.7856179999999999 O
0.267308 0.4027415 0.7643519999999999 O
0.4245885 0.1383865 0.660618 O
0.1527415 0.482692 0.9856480000000001 O
0.0972585 0.232692 0.9856480000000001 O